&CONTROL
  calculation = 'scf'
  etot_conv_thr =   8.0000000000d-05
  forc_conv_thr =   1.0000000000d-04
  max_seconds =   3.4200000000d+04
  outdir = './out/'
  prefix = 'aiida'
  pseudo_dir = './pseudo/'
  restart_mode = 'restart'
  tprnfor = .true.
  tstress = .true.
  verbosity = 'high'
/
&SYSTEM
  degauss =   1.0000000000d-02
  ecutrho =   4.8000000000d+02
  ecutwfc =   6.0000000000d+01
  ibrav = 0
  nat = 8
  nosym = .false.
  nspin = 2
  ntyp = 2
  occupations = 'smearing'
  smearing = 'cold'
  starting_magnetization(1) =   2.9411764706d-01
  starting_magnetization(2) =   1.0000000000d-01
/
&ELECTRONS
  conv_thr =   1.6000000000d-09
  electron_maxstep = 80
  mixing_beta =   1.0000000000d-01
/
ATOMIC_SPECIES
Co     58.933195 co_pbesol_v1.2.uspp.F.UPF
K      39.0983 K.pbesol-spn-kjpaw_psl.1.0.0.UPF
ATOMIC_POSITIONS angstrom
K           -1.2510739285       0.0000000000       4.0093408468
K            0.0000000000       5.2000000000       0.0000000000
K            3.2622315179       7.8000000000       1.0023352117
K            2.6366945536       2.6000000000       3.0070056351
K            1.3856206252       2.6000000000       7.0163464818
K            2.0111575894       7.8000000000       5.0116760584
Co           0.0000000000       0.0000000000       0.0000000000
Co          -1.2510739285       5.2000000000       4.0093408468
K_POINTS automatic
7 5 6 0 0 0
CELL_PARAMETERS angstrom
      7.1500000000       0.0000000000       0.0000000000
      0.0000000000      10.4000000000       0.0000000000
     -2.5021478570       0.0000000000       8.0186816935
