&CONTROL
  calculation = 'scf'
  etot_conv_thr =   1.2000000000d-04
  forc_conv_thr =   1.0000000000d-04
  max_seconds =   3.4200000000d+04
  outdir = './out/'
  prefix = 'aiida'
  pseudo_dir = './pseudo/'
  restart_mode = 'restart'
  tprnfor = .true.
  tstress = .true.
  verbosity = 'high'
/
&SYSTEM
  degauss =   1.0000000000d-02
  ecutrho =   2.8000000000d+02
  ecutwfc =   3.5000000000d+01
  ibrav = 0
  nat = 12
  nosym = .false.
  nspin = 2
  ntyp = 3
  occupations = 'smearing'
  smearing = 'cold'
  starting_magnetization(1) =   1.0000000000d-01
  starting_magnetization(2) =   1.0000000000d-01
  starting_magnetization(3) =   1.0000000000d-01
/
&ELECTRONS
  conv_thr =   2.4000000000d-09
  electron_maxstep = 80
  mixing_beta =   1.0000000000d-01
/
ATOMIC_SPECIES
Ba     137.327 Ba.pbesol-spn-kjpaw_psl.1.0.0.UPF
Br     79.904 br_pbesol_v1.4.uspp.F.UPF
I      126.90447 I.pbesol-n-kjpaw_psl.0.2.UPF
ATOMIC_POSITIONS angstrom
Ba           7.3985800000       3.8400000000       1.3640130000
Ba           3.0985800000       3.8400000000       3.7909870000
Ba           1.2014200000       1.2800000000       8.9459870000
Ba           5.5014200000       1.2800000000       6.5190130000
I            8.4331600000       3.8400000000       7.1417370000
I            4.1331600000       3.8400000000       8.3232630000
I            0.1668400000       1.2800000000       3.1682630000
I            4.4668400000       1.2800000000       1.9867370000
Br           5.8359600000       3.8400000000       4.6539340000
Br           1.5359600000       3.8400000000       0.5010660000
Br           2.7640400000       1.2800000000       5.6560660000
Br           7.0640400000       1.2800000000       9.8089340000
K_POINTS automatic
5 9 5 0 0 0
CELL_PARAMETERS angstrom
      8.6000000000       0.0000000000       0.0000000000
      0.0000000000       5.1200000000       0.0000000000
      0.0000000000       0.0000000000      10.3100000000
