&CONTROL
  calculation = 'scf'
  etot_conv_thr =   8.0000000000d-05
  forc_conv_thr =   1.0000000000d-04
  max_seconds =   6.8400000000d+03
  outdir = './out/'
  prefix = 'aiida'
  pseudo_dir = './pseudo/'
  tprnfor = .true.
  tstress = .true.
  verbosity = 'high'
/
&SYSTEM
  degauss =   2.0000000000d-02
  ecutrho =   7.8000000000d+02
  ecutwfc =   6.5000000000d+01
  ibrav = 0
  nat = 8
  nosym = .false.
  nspin = 2
  ntyp = 3
  occupations = 'smearing'
  smearing = 'cold'
  starting_magnetization(1) =   1.0000000000d-01
  starting_magnetization(2) =   3.3333333333d-01
  starting_magnetization(3) =   1.0000000000d-01
/
&ELECTRONS
  conv_thr =   1.6000000000d-09
  electron_maxstep = 500
  mixing_beta =   4.0000000000d-01
/
ATOMIC_SPECIES
Ba     137.327 Ba.pbesol-spn-kjpaw_psl.1.0.0.UPF
Mn     54.938045 mn_pbesol_v1.5.uspp.F.UPF
O      15.9994 O.pbesol-n-kjpaw_psl.0.1.UPF
ATOMIC_POSITIONS angstrom
Ba           2.1950000000       0.0000000000       2.0600000000
Mn           0.0000000000       9.7186565000       0.0329600000
Mn           0.0000000000       7.6588435000       2.0929600000
O            2.1950000000       9.6781090000       0.0041200000
O            2.1950000000       7.6993910000       2.0641200000
O            0.0000000000       7.8059730000       0.0865200000
O            0.0000000000       9.5715270000       2.1465200000
O            0.0000000000       0.0000000000      -0.0000000000
K_POINTS automatic
11 11 10 0 0 0
CELL_PARAMETERS angstrom
      0.0000000000       5.7925000000      -2.0600000000
      0.0000000000       5.7925000000       2.0600000000
      4.3900000000       0.0000000000       0.0000000000
