&CONTROL
  calculation = 'scf'
  etot_conv_thr =   1.3000000000d-04
  forc_conv_thr =   1.0000000000d-04
  max_seconds =   3.4200000000d+04
  outdir = './out/'
  prefix = 'aiida'
  pseudo_dir = './pseudo/'
  tprnfor = .true.
  tstress = .true.
  verbosity = 'high'
/
&SYSTEM
  degauss =   1.0000000000d-02
  ecutrho =   4.0000000000d+02
  ecutwfc =   5.0000000000d+01
  ibrav = 0
  nat = 13
  nosym = .false.
  nspin = 2
  ntyp = 2
  occupations = 'smearing'
  smearing = 'cold'
  starting_magnetization(1) =   1.0000000000d-01
  starting_magnetization(2) =   1.0000000000d-01
/
&ELECTRONS
  conv_thr =   2.6000000000d-09
  electron_maxstep = 80
  mixing_beta =   4.0000000000d-01
/
ATOMIC_SPECIES
Ba     137.327 Ba.pbesol-spn-kjpaw_psl.1.0.0.UPF
In     114.818 In.pbesol-dn-rrkjus_psl.0.2.2.UPF
ATOMIC_POSITIONS angstrom
Ba           1.7016560000       5.4634316000       2.9440000000
Ba           1.5105684000       8.6756560000      -0.0000000000
Ba          12.2463440000       8.4845684000       2.9440000000
Ba          12.4374316000       5.2723440000       0.0000000000
Ba           9.5278788000       8.4873580000       0.0000000000
Ba          12.4346420000       2.5538788000       2.9440000000
Ba           4.4201212000       5.4606420000      -0.0000000000
Ba           1.5133580000      11.3941212000       2.9440000000
Ba           0.0000000000       0.0000000000       0.0000000000
In          12.5587792000      10.6409292000       0.0000000000
In          10.2810708000       5.5847792000       2.9440000000
In           1.3892208000       3.3070708000       0.0000000000
In           3.6669292000       8.3632208000       2.9440000000
K_POINTS automatic
8 8 8 0 0 0
CELL_PARAMETERS angstrom
     -6.9740000000       6.9740000000       2.9440000000
      6.9740000000      -6.9740000000       2.9440000000
      6.9740000000       6.9740000000      -2.9440000000
