&CONTROL
  calculation = 'scf'
  etot_conv_thr =   1.0000000000d-04
  forc_conv_thr =   1.0000000000d-04
  max_seconds =   6.8400000000d+03
  outdir = './out/'
  prefix = 'aiida'
  pseudo_dir = './pseudo/'
  tprnfor = .true.
  tstress = .true.
  verbosity = 'high'
/
&SYSTEM
  degauss =   2.0000000000d-02
  ecutrho =   4.0000000000d+02
  ecutwfc =   5.0000000000d+01
  ibrav = 0
  nat = 10
  nosym = .false.
  nspin = 2
  ntyp = 3
  occupations = 'smearing'
  smearing = 'cold'
  starting_magnetization(1) =   1.0000000000d-01
  starting_magnetization(2) =   2.7777777778d-01
  starting_magnetization(3) =   1.0000000000d-01
/
&ELECTRONS
  conv_thr =   2.0000000000d-09
  electron_maxstep = 500
  mixing_beta =   4.0000000000d-01
/
ATOMIC_SPECIES
Cl     35.453 cl_pbesol_v1.4.uspp.F.UPF
Ni     58.6934 ni_pbesol_v1.4.uspp.F.UPF
O      15.9994 O.pbesol-n-kjpaw_psl.0.1.UPF
ATOMIC_POSITIONS angstrom
Ni           8.2473750000       5.1643500000       0.0000000000
Ni           2.7491250000       5.1643500000       0.0000000000
Cl           5.4298015812      -0.0000000000       4.4765132229
Cl           6.9410966308       3.4429000000       1.0671564030
Cl          -0.3495395992      -0.0000000000       4.2453421995
Cl           1.7239378113       3.4429000000       1.2983274264
O            2.6949849114       5.4253218200       4.0418895242
O           -2.8032650886       4.9033781800       4.0418895242
O            4.1776633006       5.4253218200       1.5017801016
O            9.6759133006       4.9033781800       1.5017801016
K_POINTS automatic
8 8 8 0 0 0
CELL_PARAMETERS angstrom
      5.4982500000       3.4429000000       0.0000000000
     -5.4982500000       3.4429000000       0.0000000000
     -4.1238517880       0.0000000000       5.5436696259
