&CONTROL
  calculation = 'scf'
  etot_conv_thr =   1.4000000000d-04
  forc_conv_thr =   1.0000000000d-04
  max_seconds =   3.4200000000d+04
  outdir = './out/'
  prefix = 'aiida'
  pseudo_dir = './pseudo/'
  tprnfor = .true.
  tstress = .true.
  verbosity = 'high'
/
&SYSTEM
  degauss =   1.0000000000d-02
  ecutrho =   1.0800000000d+03
  ecutwfc =   9.0000000000d+01
  ibrav = 0
  nat = 14
  nosym = .false.
  nspin = 2
  ntyp = 4
  occupations = 'smearing'
  smearing = 'cold'
  starting_magnetization(1) =   1.0000000000d-01
  starting_magnetization(2) =   1.0000000000d-01
  starting_magnetization(3) =   3.1250000000d-01
  starting_magnetization(4) =   1.0000000000d-01
/
&ELECTRONS
  conv_thr =   2.8000000000d-09
  electron_maxstep = 80
  mixing_beta =   4.0000000000d-01
/
ATOMIC_SPECIES
Ba     137.327 Ba.pbesol-spn-kjpaw_psl.1.0.0.UPF
Br     79.904 br_pbesol_v1.4.uspp.F.UPF
Fe     55.845 Fe.pbesol-spn-kjpaw_psl.0.2.1.UPF
O      15.9994 O.pbesol-n-kjpaw_psl.0.1.UPF
ATOMIC_POSITIONS angstrom
Ba           2.0055000000       2.0055000000       1.2632500000
Ba           2.0055000000       2.0055000000       4.9925500000
Ba           0.0000000000       0.0000000000       7.8972500000
Ba           0.0000000000       0.0000000000      11.8730000000
Fe           2.0055000000       2.0055000000       9.7882500000
Fe           0.0000000000       0.0000000000       3.2999500000
Br           2.0055000000       2.0055000000      13.2556000000
Br           0.0000000000       0.0000000000       0.0000000000
O            0.0000000000       2.0055000000       2.9620500000
O            2.0055000000       0.0000000000       2.9620500000
O            0.0000000000       2.0055000000      10.2145000000
O            2.0055000000       0.0000000000      10.2145000000
O            2.0055000000       2.0055000000       7.8662500000
O            0.0000000000       0.0000000000       5.4575500000
K_POINTS automatic
11 11 3 0 0 0
CELL_PARAMETERS angstrom
      4.0110000000       0.0000000000       0.0000000000
      0.0000000000       4.0110000000       0.0000000000
      0.0000000000       0.0000000000      15.5000000000
