&CONTROL
  calculation = 'scf'
  etot_conv_thr =   1.5000000000d-04
  forc_conv_thr =   1.0000000000d-04
  max_seconds =   3.4200000000d+04
  outdir = './out/'
  prefix = 'aiida'
  pseudo_dir = './pseudo/'
  tprnfor = .true.
  tstress = .true.
  verbosity = 'high'
/
&SYSTEM
  degauss =   1.0000000000d-02
  ecutrho =   4.8000000000d+02
  ecutwfc =   6.0000000000d+01
  ibrav = 0
  nat = 15
  nosym = .false.
  nspin = 2
  ntyp = 4
  occupations = 'smearing'
  smearing = 'cold'
  starting_magnetization(1) =   1.0000000000d-01
  starting_magnetization(2) =   1.0000000000d-01
  starting_magnetization(3) =   1.0000000000d-01
  starting_magnetization(4) =   1.0000000000d-01
/
&ELECTRONS
  conv_thr =   3.0000000000d-09
  electron_maxstep = 80
  mixing_beta =   4.0000000000d-01
/
ATOMIC_SPECIES
N      14.0067 N.pbesol-theos.UPF
O      15.9994 O.pbesol-n-kjpaw_psl.0.1.UPF
S      32.065 s_pbesol_v1.4.uspp.F.UPF
Zn     65.38 zn_pbesol_v1.uspp.F.UPF
ATOMIC_POSITIONS angstrom
Zn           0.0000000000       0.0000000000       0.0000000000
S            5.6597191030       4.3133461989       5.5620440829
S            2.6425083684       1.4152189132       1.5233623921
N            6.4352597361       4.7479507164       1.8209494641
N            1.8669677353       0.9806143958       5.2644570109
N            5.1820850564       3.8527557213       2.0405970648
N            3.1201424151       1.8758093908       5.0448094102
O            6.7019077940       4.0885825908       6.4477198923
O            1.6003196775       1.6399825213       0.6376865828
O            6.0576413638       5.4444986019       4.6976244929
O            2.2445861076       0.2840665102       2.3877819821
O            5.2094025036       3.1556000108       4.6267704282
O            3.0928249679       2.5729651013       2.4586360468
O            4.5887800039       4.5072780468       6.5256593635
O            3.7134474676       1.2212870653       0.5597471115
K_POINTS automatic
6 8 9 0 0 0
CELL_PARAMETERS angstrom
      1.9916192824      -0.0082290780       7.0854064750
      0.9806081891       5.7367941901       0.0000000000
     -5.3300000000       0.0000000000       0.0000000000
