&CONTROL
  calculation = 'scf'
  etot_conv_thr =   3.0000000000d-05
  forc_conv_thr =   1.0000000000d-04
  max_seconds =   6.8400000000d+03
  outdir = './out/'
  prefix = 'aiida'
  pseudo_dir = './pseudo/'
  tprnfor = .true.
  tstress = .true.
  verbosity = 'high'
/
&SYSTEM
  degauss =   2.0000000000d-02
  ecutrho =   3.6000000000d+02
  ecutwfc =   4.5000000000d+01
  ibrav = 0
  nat = 3
  nosym = .false.
  nspin = 2
  ntyp = 3
  occupations = 'smearing'
  smearing = 'cold'
  starting_magnetization(1) =   2.9411764706d-01
  starting_magnetization(2) =   1.0000000000d-01
  starting_magnetization(3) =   1.0000000000d-01
/
&ELECTRONS
  conv_thr =   6.0000000000d-10
  electron_maxstep = 500
  mixing_beta =   4.0000000000d-01
/
ATOMIC_SPECIES
Co     58.933195 co_pbesol_v1.2.uspp.F.UPF
I      126.90447 I.pbesol-n-kjpaw_psl.0.2.UPF
S      32.065 s_pbesol_v1.4.uspp.F.UPF
ATOMIC_POSITIONS angstrom
Co           0.0000000000       0.0000000000       0.0000000000
S            2.6775000000       2.6775000000       8.0325000000
I            2.6775000000       2.6775000000       2.6775000000
K_POINTS automatic
7 7 7 0 0 0
CELL_PARAMETERS angstrom
      0.0000000000       5.3550000000       5.3550000000
      5.3550000000       0.0000000000       5.3550000000
      5.3550000000       5.3550000000       0.0000000000
