&CONTROL
  calculation = 'scf'
  etot_conv_thr =   1.4000000000d-04
  forc_conv_thr =   1.0000000000d-04
  max_seconds =   3.4200000000d+04
  outdir = './out/'
  prefix = 'aiida'
  pseudo_dir = './pseudo/'
  tprnfor = .true.
  tstress = .true.
  verbosity = 'high'
/
&SYSTEM
  degauss =   1.0000000000d-02
  ecutrho =   4.8000000000d+02
  ecutwfc =   6.0000000000d+01
  ibrav = 0
  nat = 14
  nosym = .false.
  nspin = 2
  ntyp = 3
  occupations = 'smearing'
  smearing = 'cold'
  starting_magnetization(1) =   1.0000000000d-01
  starting_magnetization(2) =   1.0000000000d-01
  starting_magnetization(3) =   1.0000000000d-01
/
&ELECTRONS
  conv_thr =   2.8000000000d-09
  electron_maxstep = 80
  mixing_beta =   4.0000000000d-01
/
ATOMIC_SPECIES
Ba     137.327 Ba.pbesol-spn-kjpaw_psl.1.0.0.UPF
H      1.00794 H.pbesol-rrkjus_psl.1.0.0.UPF
In     114.818 In.pbesol-dn-rrkjus_psl.0.2.2.UPF
ATOMIC_POSITIONS angstrom
Ba           1.5454138000       5.2510534000       2.9590000000
Ba           1.7354466000       8.5319138000       0.0000000000
Ba          12.4275862000       8.7219466000       2.9590000000
Ba          12.2375534000       5.4410862000       0.0000000000
Ba          12.4681079000      11.4131464000       0.0000000000
Ba           9.5463536000       5.4816079000       2.9590000000
Ba           1.5048921000       2.5598536000       0.0000000000
Ba           4.4266464000       8.4913921000       2.9590000000
Ba           0.0000000000       0.0000000000       2.9590000000
In          10.3064848000       8.3796081000       0.0000000000
In          12.5798919000       3.3199848000       2.9590000000
In           3.6665152000       5.5933919000      -0.0000000000
In           1.3931081000      10.6530152000       2.9590000000
H            0.0000000000       0.0000000000       0.0000000000
K_POINTS automatic
8 8 8 0 0 0
CELL_PARAMETERS angstrom
     -6.9865000000       6.9865000000       2.9590000000
      6.9865000000      -6.9865000000       2.9590000000
      6.9865000000       6.9865000000      -2.9590000000
