&CONTROL
  calculation = 'scf'
  etot_conv_thr =   1.4000000000d-04
  forc_conv_thr =   1.0000000000d-04
  max_seconds =   3.4200000000d+04
  outdir = './out/'
  prefix = 'aiida'
  pseudo_dir = './pseudo/'
  restart_mode = 'restart'
  tprnfor = .true.
  tstress = .true.
  verbosity = 'high'
/
&SYSTEM
  degauss =   1.0000000000d-02
  ecutrho =   5.6000000000d+02
  ecutwfc =   7.0000000000d+01
  ibrav = 0
  nat = 14
  nosym = .false.
  nspin = 2
  ntyp = 3
  occupations = 'smearing'
  smearing = 'cold'
  starting_magnetization(1) =   1.0000000000d-01
  starting_magnetization(2) =   1.0000000000d-01
  starting_magnetization(3) =   1.0000000000d-01
/
&ELECTRONS
  conv_thr =   2.8000000000d-09
  electron_maxstep = 80
  mixing_beta =   1.0000000000d-01
/
ATOMIC_SPECIES
Ba     137.327 Ba.pbesol-spn-kjpaw_psl.1.0.0.UPF
Ga     69.723 Ga.pbesol-dn-kjpaw_psl.1.0.0.UPF
H      1.00794 H.pbesol-rrkjus_psl.1.0.0.UPF
ATOMIC_POSITIONS angstrom
Ba           1.2286288813       1.1170216826       2.9253630822
Ba           3.7746160325       3.4195666826       5.7193243225
Ga           3.7333813576       3.8191102776       1.2517879084
Ga           1.2698635562       1.5165652776       7.3928994964
H            3.7344600807       0.8132427762       1.3670025732
H            1.2687848330       3.1157877762       7.2776848316
H            4.9759630079       3.3493740588       2.1635171549
H            0.0272819059       1.0468290588       6.4811702499
H            2.3963614755       3.3496208916       2.0102105395
H            2.6068834383       1.0470758916       6.6344768652
H            3.8008947204       3.2521587669       8.4321681385
H            1.2023501933       0.9496137669       0.2125192662
H            3.7406973223       1.1010954394       4.1800867264
H            1.2625475915       3.4036404394       4.4646006783
K_POINTS automatic
9 10 5 0 0 0
CELL_PARAMETERS angstrom
      5.0230100000       0.0000000000       0.0000000000
      0.0000000000       4.6050900000       0.0000000000
     -0.0197650862       0.0000000000       8.6446874047
