&CONTROL
  calculation = 'scf'
  etot_conv_thr =   1.2000000000d-04
  forc_conv_thr =   1.0000000000d-04
  max_seconds =   3.4200000000d+04
  outdir = './out/'
  prefix = 'aiida'
  pseudo_dir = './pseudo/'
  tprnfor = .true.
  tstress = .true.
  verbosity = 'high'
/
&SYSTEM
  degauss =   1.0000000000d-02
  ecutrho =   4.0000000000d+02
  ecutwfc =   5.0000000000d+01
  ibrav = 0
  nat = 12
  nosym = .false.
  nspin = 2
  ntyp = 1
  occupations = 'smearing'
  smearing = 'cold'
  starting_magnetization(1) =   1.0000000000d-01
/
&ELECTRONS
  conv_thr =   2.4000000000d-09
  electron_maxstep = 80
  mixing_beta =   4.0000000000d-01
/
ATOMIC_SPECIES
O      15.9994 O.pbesol-n-kjpaw_psl.0.1.UPF
ATOMIC_POSITIONS angstrom
O            0.6460000000       4.7600000000       6.5280000000
O            4.0460000000       5.4400000000       5.3720000000
O            2.0400000000       6.1540000000       3.6720000000
O            5.4400000000       4.0460000000       1.4280000000
O            6.1540000000       2.0400000000       3.1280000000
O            2.7540000000       1.3600000000       1.9720000000
O            4.7600000000       0.6460000000       0.2720000000
O            1.3600000000       2.7540000000       4.8280000000
O            2.6656000000       4.1344000000       1.7000000000
O            6.0656000000       6.0656000000       3.4000000000
O            4.1344000000       2.6656000000       5.1000000000
O            0.7344000000       0.7344000000       0.0000000000
K_POINTS automatic
7 7 7 0 0 0
CELL_PARAMETERS angstrom
      6.8000000000       0.0000000000       0.0000000000
      0.0000000000       6.8000000000       0.0000000000
      0.0000000000       0.0000000000       6.8000000000
