&CONTROL
  calculation = 'scf'
  etot_conv_thr =   1.0000000000d-04
  forc_conv_thr =   1.0000000000d-04
  max_seconds =   6.8400000000d+03
  outdir = './out/'
  prefix = 'aiida'
  pseudo_dir = './pseudo/'
  restart_mode = 'from_scratch'
  tprnfor = .true.
  tstress = .true.
  verbosity = 'high'
/
&SYSTEM
  degauss =   2.0000000000d-02
  ecutrho =   4.8000000000d+02
  ecutwfc =   6.0000000000d+01
  ibrav = 0
  nat = 10
  nbnd = 52
  nosym = .false.
  nspin = 2
  ntyp = 4
  occupations = 'smearing'
  smearing = 'cold'
  starting_magnetization(1) =   2.9411764706d-01
  starting_magnetization(2) =   1.0000000000d-01
  starting_magnetization(3) =   1.0000000000d-01
  starting_magnetization(4) =   1.0000000000d-01
/
&ELECTRONS
  conv_thr =   2.0000000000d-09
  diagonalization = 'ppcg'
  electron_maxstep = 100
  mixing_beta =   4.0000000000d-01
  startingpot = 'file'
/
ATOMIC_SPECIES
Co     58.933195 co_pbesol_v1.2.uspp.F.UPF
F      18.9984032 f_pbesol_v1.4.uspp.F.UPF
K      39.0983 K.pbesol-spn-kjpaw_psl.1.0.0.UPF
Li     6.941 li_pbesol_v1.4.uspp.F.UPF
ATOMIC_POSITIONS angstrom
K            1.9987500000       1.9987500000       5.9962500000
K            1.9987500000       5.9962500000       5.9962500000
Li           3.9975000000       0.0000000000       0.0000000000
Co           0.0000000000       0.0000000000       0.0000000000
F            6.2680800000       0.0000000000       0.0000000000
F            3.9975000000       2.2705800000      -0.0000000000
F           -0.0000000000      -0.0000000000       6.2680800000
F            3.9975000000       0.0000000000       5.7244200000
F            3.9975000000       5.7244200000       0.0000000000
F            1.7269200000      -0.0000000000      -0.0000000000
K_POINTS automatic
10 10 10 0 0 0
CELL_PARAMETERS angstrom
      0.0000000000       3.9975000000       3.9975000000
      3.9975000000       0.0000000000       3.9975000000
      3.9975000000       3.9975000000       0.0000000000
