&CONTROL
  calculation = 'scf'
  etot_conv_thr =   1.2000000000d-04
  forc_conv_thr =   1.0000000000d-04
  max_seconds =   3.4200000000d+04
  outdir = './out/'
  prefix = 'aiida'
  pseudo_dir = './pseudo/'
  tprnfor = .true.
  tstress = .true.
  verbosity = 'high'
/
&SYSTEM
  degauss =   1.0000000000d-02
  ecutrho =   4.0000000000d+02
  ecutwfc =   5.0000000000d+01
  ibrav = 0
  nat = 12
  nosym = .false.
  nspin = 2
  ntyp = 2
  occupations = 'smearing'
  smearing = 'cold'
  starting_magnetization(1) =   1.0000000000d-01
  starting_magnetization(2) =   4.1666666667d-01
/
&ELECTRONS
  conv_thr =   2.4000000000d-09
  electron_maxstep = 80
  mixing_beta =   4.0000000000d-01
/
ATOMIC_SPECIES
O      15.9994 O.pbesol-n-kjpaw_psl.0.1.UPF
Ti     47.867 ti_pbesol_v1.4.uspp.F.UPF
ATOMIC_POSITIONS angstrom
Ti          -0.0000000000       5.8746820000      12.1677188000
Ti           3.9050000000       1.9353180000      12.1677188000
Ti           1.9829590000      -0.0000000000      12.2078080000
Ti           5.8270410000       0.0000000000      12.2078080000
O            0.0000000000       0.0000000000      11.9401156000
O            3.9050000000       0.0000000000      11.8482984000
O           -0.0000000000       3.8347100000      11.8276072000
O            3.9050000000       3.9752900000      11.8276072000
O            6.1878630000       5.8903020000      -0.0000000000
O            5.5271370000       1.9196980000      -0.0000000000
O            2.2828630000       1.9196980000      -0.0000000000
O            1.6221370000       5.8903020000      -0.0000000000
K_POINTS automatic
6 6 4 0 0 0
CELL_PARAMETERS angstrom
      3.9050000000      -7.8100000000       0.0000000000
      3.9050000000       7.8100000000       0.0000000000
      0.0000000000       0.0000000000      12.9320000000
