&CONTROL
  calculation = 'scf'
  etot_conv_thr =   2.0000000000d-05
  forc_conv_thr =   1.0000000000d-04
  max_seconds =   6.8400000000d+03
  outdir = './out/'
  prefix = 'aiida'
  pseudo_dir = './pseudo/'
  tprnfor = .true.
  tstress = .true.
  verbosity = 'high'
/
&SYSTEM
  degauss =   2.0000000000d-02
  ecutrho =   3.2000000000d+02
  ecutwfc =   4.0000000000d+01
  ibrav = 0
  nat = 2
  nosym = .false.
  nspin = 2
  ntyp = 2
  occupations = 'smearing'
  smearing = 'cold'
  starting_magnetization(1) =   1.0000000000d-01
  starting_magnetization(2) =   1.0000000000d-01
/
&ELECTRONS
  conv_thr =   4.0000000000d-10
  electron_maxstep = 100
  mixing_beta =   4.0000000000d-01
/
ATOMIC_SPECIES
Ge     72.64 ge_pbesol_v1.4.uspp.F.UPF
Rb     85.4678 Rb_ONCV_PBEsol-1.0.upf
ATOMIC_POSITIONS angstrom
Rb           3.7590000000       0.0000000000       0.0000000000
Ge           0.0000000000       0.0000000000       0.0000000000
K_POINTS automatic
10 10 10 0 0 0
CELL_PARAMETERS angstrom
      0.0000000000       3.7590000000       3.7590000000
      3.7590000000       0.0000000000       3.7590000000
      3.7590000000       3.7590000000       0.0000000000
