&CONTROL
  calculation = 'scf'
  etot_conv_thr =   1.0000000000d-04
  forc_conv_thr =   1.0000000000d-04
  max_seconds =   3.4200000000d+04
  outdir = './out/'
  prefix = 'aiida'
  pseudo_dir = './pseudo/'
  tprnfor = .true.
  tstress = .true.
  verbosity = 'high'
/
&SYSTEM
  degauss =   1.0000000000d-02
  ecutrho =   3.6000000000d+02
  ecutwfc =   4.5000000000d+01
  ibrav = 0
  nat = 10
  nosym = .false.
  nspin = 2
  ntyp = 3
  occupations = 'smearing'
  smearing = 'cold'
  starting_magnetization(1) =   2.9411764706d-01
  starting_magnetization(2) =   1.0000000000d-01
  starting_magnetization(3) =   1.0000000000d-01
/
&ELECTRONS
  conv_thr =   2.0000000000d-09
  electron_maxstep = 80
  mixing_beta =   4.0000000000d-01
/
ATOMIC_SPECIES
Co     58.933195 co_pbesol_v1.2.uspp.F.UPF
F      18.9984032 f_pbesol_v1.4.uspp.F.UPF
Na     22.98977 na_pbesol_v1.5.uspp.F.UPF
ATOMIC_POSITIONS angstrom
Na           4.0650000000       0.0000000000       0.0000000000
Na           2.0325000000       2.0325000000       6.0975000000
Na           2.0325000000       6.0975000000       6.0975000000
Co           0.0000000000       0.0000000000       0.0000000000
F            6.4227000000       0.0000000000       0.0000000000
F            4.0650000000       2.3577000000       0.0000000000
F           -0.0000000000      -0.0000000000       6.4227000000
F            4.0650000000      -0.0000000000       5.7723000000
F            4.0650000000       5.7723000000      -0.0000000000
F            1.7073000000       0.0000000000       0.0000000000
K_POINTS automatic
9 9 9 0 0 0
CELL_PARAMETERS angstrom
      0.0000000000       4.0650000000       4.0650000000
      4.0650000000       0.0000000000       4.0650000000
      4.0650000000       4.0650000000       0.0000000000
