&CONTROL
  calculation = 'scf'
  etot_conv_thr =   9.0000000000d-05
  forc_conv_thr =   1.0000000000d-04
  max_seconds =   3.4200000000d+04
  outdir = './out/'
  prefix = 'aiida'
  pseudo_dir = './pseudo/'
  tprnfor = .true.
  tstress = .true.
  verbosity = 'high'
/
&SYSTEM
  degauss =   1.0000000000d-02
  ecutrho =   4.8000000000d+02
  ecutwfc =   6.0000000000d+01
  ibrav = 0
  nat = 9
  nosym = .false.
  nspin = 2
  ntyp = 3
  occupations = 'smearing'
  smearing = 'cold'
  starting_magnetization(1) =   1.0000000000d-01
  starting_magnetization(2) =   1.0000000000d-01
  starting_magnetization(3) =   1.0000000000d-01
/
&ELECTRONS
  conv_thr =   1.8000000000d-09
  electron_maxstep = 80
  mixing_beta =   4.0000000000d-01
/
ATOMIC_SPECIES
F      18.9984032 f_pbesol_v1.4.uspp.F.UPF
Ge     72.64 ge_pbesol_v1.4.uspp.F.UPF
N      14.0067 N.pbesol-theos.UPF
ATOMIC_POSITIONS angstrom
Ge           0.0000000000       0.0000000000       0.0000000000
N           -0.0000000000       3.3774990748       1.4563750000
N            2.9250000000       1.6887495374       3.3186250000
F            1.2548250000       0.7244735515       1.0218500000
F            0.0000000000       1.4489471031       3.7531500000
F           -1.6701750000       4.3417750606       3.7531500000
F            4.5951750000       0.7244735515       1.0218500000
F            2.9250000000       3.6173015091       1.0218500000
F            1.6701750000       4.3417750606       3.7531500000
K_POINTS automatic
9 9 9 0 0 0
CELL_PARAMETERS angstrom
      5.8500000000       0.0000000000       0.0000000000
     -2.9250000000       5.0662486121       0.0000000000
      0.0000000000       0.0000000000       4.7750000000
