&CONTROL
  calculation = 'scf'
  etot_conv_thr =   1.2000000000d-04
  forc_conv_thr =   1.0000000000d-04
  max_seconds =   3.4200000000d+04
  outdir = './out/'
  prefix = 'aiida'
  pseudo_dir = './pseudo/'
  restart_mode = 'restart'
  tprnfor = .true.
  tstress = .true.
  verbosity = 'high'
/
&SYSTEM
  degauss =   1.0000000000d-02
  ecutrho =   1.0800000000d+03
  ecutwfc =   9.0000000000d+01
  ibrav = 0
  nat = 12
  nosym = .false.
  nspin = 2
  ntyp = 3
  occupations = 'smearing'
  smearing = 'cold'
  starting_magnetization(1) =   1.0000000000d-01
  starting_magnetization(2) =   3.1250000000d-01
  starting_magnetization(3) =   1.0000000000d-01
/
&ELECTRONS
  conv_thr =   2.4000000000d-09
  electron_maxstep = 80
  mixing_beta =   1.0000000000d-01
/
ATOMIC_SPECIES
Cs     132.9054519 cs_pbesol_v1.uspp.F.UPF
Fe     55.845 Fe.pbesol-spn-kjpaw_psl.0.2.1.UPF
S      32.065 s_pbesol_v1.4.uspp.F.UPF
ATOMIC_POSITIONS angstrom
Cs           4.7596500000       9.6320901600       1.3705000000
Cs           4.7596500000       1.9505098400       4.1115000000
Fe           8.1694632600      -0.0000000000       2.7410000000
Fe           8.1694632600      -0.0000000000       0.0000000000
Fe           1.3498367400      -0.0000000000       2.7410000000
Fe           1.3498367400      -0.0000000000       0.0000000000
S            2.5683071400       1.2370216800       1.3705000000
S            2.5683071400      10.3455783200       4.1115000000
S            6.9509928600       1.2370216800       1.3705000000
S            6.9509928600      10.3455783200       4.1115000000
S            4.7596500000       4.4535097000       1.3705000000
S            4.7596500000       7.1290903000       4.1115000000
K_POINTS automatic
6 6 8 0 0 0
CELL_PARAMETERS angstrom
      4.7596500000      -5.7913000000       0.0000000000
      4.7596500000       5.7913000000       0.0000000000
      0.0000000000       0.0000000000       5.4820000000
