&CONTROL
  calculation = 'scf'
  etot_conv_thr =   8.0000000000d-05
  forc_conv_thr =   1.0000000000d-04
  max_seconds =   3.4200000000d+04
  outdir = './out/'
  prefix = 'aiida'
  pseudo_dir = './pseudo/'
  tprnfor = .true.
  tstress = .true.
  verbosity = 'high'
/
&SYSTEM
  degauss =   1.0000000000d-02
  ecutrho =   3.6000000000d+02
  ecutwfc =   4.5000000000d+01
  ibrav = 0
  nat = 8
  nosym = .false.
  nspin = 2
  ntyp = 1
  occupations = 'smearing'
  smearing = 'cold'
  starting_magnetization(1) =   1.0000000000d-01
/
&ELECTRONS
  conv_thr =   1.6000000000d-09
  electron_maxstep = 80
  mixing_beta =   4.0000000000d-01
/
ATOMIC_SPECIES
F      18.9984032 f_pbesol_v1.4.uspp.F.UPF
ATOMIC_POSITIONS angstrom
F            1.6675000000       0.0000000000       3.3350000000
F            5.0025000000       0.0000000000       3.3350000000
F            3.3350000000       1.6675000000       0.0000000000
F            3.3350000000       5.0025000000       0.0000000000
F            0.0000000000       3.3350000000       5.0025000000
F            0.0000000000       3.3350000000       1.6675000000
F            3.3350000000       3.3350000000       3.3350000000
F            0.0000000000       0.0000000000       0.0000000000
K_POINTS automatic
7 7 7 0 0 0
CELL_PARAMETERS angstrom
      6.6700000000       0.0000000000       0.0000000000
      0.0000000000       6.6700000000       0.0000000000
      0.0000000000       0.0000000000       6.6700000000
