&CONTROL
  calculation = 'scf'
  etot_conv_thr =   1.4000000000d-04
  forc_conv_thr =   1.0000000000d-04
  max_seconds =   3.4200000000d+04
  outdir = './out/'
  prefix = 'aiida'
  pseudo_dir = './pseudo/'
  restart_mode = 'restart'
  tprnfor = .true.
  tstress = .true.
  verbosity = 'high'
/
&SYSTEM
  degauss =   1.0000000000d-02
  ecutrho =   1.0800000000d+03
  ecutwfc =   9.0000000000d+01
  ibrav = 0
  nat = 14
  nosym = .false.
  nspin = 2
  ntyp = 3
  occupations = 'smearing'
  smearing = 'cold'
  starting_magnetization(1) =   3.1250000000d-01
  starting_magnetization(2) =   1.0000000000d-01
  starting_magnetization(3) =   1.0000000000d-01
/
&ELECTRONS
  conv_thr =   2.8000000000d-09
  electron_maxstep = 80
  mixing_beta =   2.0000000000d-01
/
ATOMIC_SPECIES
Fe     55.845 Fe.pbesol-spn-kjpaw_psl.0.2.1.UPF
O      15.9994 O.pbesol-n-kjpaw_psl.0.1.UPF
Se     78.96 se_pbesol_v1.uspp.F.UPF
ATOMIC_POSITIONS angstrom
Fe           3.6342836249       6.0337500000       3.4571082597
Fe           5.3557500000       2.0112500000       0.0000000000
Se           2.7097668125       3.2992545000       1.7285541299
Se           0.9883004374       4.7457455000       5.1856623896
O            2.0199926423       2.3660345000       2.8728569638
O            0.2985262672       5.6789655000       6.3299652236
O            3.3995409826       2.3660345000       0.5842512959
O            1.6780746075       5.6789655000       4.0413595556
O            0.3017626693       0.2164105000       2.4026902405
O           -1.4197037058       7.8285895000       5.8597985002
O            5.1177709556       0.2164105000       1.0544180192
O            3.3963045805       7.8285895000       4.5115262789
O            2.7097668125       7.1230430000       1.7285541299
O            0.9883004374       0.9219570000       5.1856623896
K_POINTS automatic
9 9 7 0 0 0
CELL_PARAMETERS angstrom
      3.5705000000       4.0225000000       0.0000000000
     -3.5705000000       4.0225000000       0.0000000000
     -3.4429327502       0.0000000000       6.9142165195
