&CONTROL
  calculation = 'scf'
  etot_conv_thr =   1.0000000000d-04
  forc_conv_thr =   1.0000000000d-04
  max_seconds =   3.4200000000d+04
  outdir = './out/'
  prefix = 'aiida'
  pseudo_dir = './pseudo/'
  tprnfor = .true.
  tstress = .true.
  verbosity = 'high'
/
&SYSTEM
  degauss =   1.0000000000d-02
  ecutrho =   1.0800000000d+03
  ecutwfc =   9.0000000000d+01
  ibrav = 0
  nat = 10
  nosym = .false.
  nspin = 2
  ntyp = 2
  occupations = 'smearing'
  smearing = 'cold'
  starting_magnetization(1) =   3.1250000000d-01
  starting_magnetization(2) =   1.0000000000d-01
/
&ELECTRONS
  conv_thr =   2.0000000000d-09
  electron_maxstep = 80
  mixing_beta =   4.0000000000d-01
/
ATOMIC_SPECIES
Fe     55.845 Fe.pbesol-spn-kjpaw_psl.0.2.1.UPF
O      15.9994 O.pbesol-n-kjpaw_psl.0.1.UPF
ATOMIC_POSITIONS angstrom
Fe           0.0000000000       0.0000000000       4.8778420000
Fe           0.0000000000       0.0000000000       8.8625580000
Fe           0.0000000000       0.0000000000       1.9923580000
Fe           0.0000000000       0.0000000000      11.7480420000
O            1.7560908750       2.7688107381       1.1445753200
O            0.7596558750       4.2218589045      12.5958246800
O            4.0360650000       1.4530481664       1.1445753200
O            1.7565941250       0.1364139400       1.1445753200
O            0.7601591250       1.5894621064      12.5958246800
O           -1.5198150000       2.9052246782      12.5958246800
K_POINTS automatic
10 10 4 0 0 0
CELL_PARAMETERS angstrom
      5.0325000000       0.0000000000       0.0000000000
     -2.5162500000       4.3582728445       0.0000000000
      0.0000000000       0.0000000000      13.7404000000
