&CONTROL
  calculation = 'scf'
  etot_conv_thr =   1.2000000000d-04
  forc_conv_thr =   1.0000000000d-04
  max_seconds =   3.4200000000d+04
  outdir = './out/'
  prefix = 'aiida'
  pseudo_dir = './pseudo/'
  restart_mode = 'restart'
  tprnfor = .true.
  tstress = .true.
  verbosity = 'high'
/
&SYSTEM
  degauss =   1.0000000000d-02
  ecutrho =   4.0000000000d+02
  ecutwfc =   5.0000000000d+01
  ibrav = 0
  nat = 12
  nosym = .false.
  nspin = 2
  ntyp = 2
  occupations = 'smearing'
  smearing = 'cold'
  starting_magnetization(1) =   1.0000000000d-01
  starting_magnetization(2) =   1.0000000000d-01
/
&ELECTRONS
  conv_thr =   2.4000000000d-09
  electron_maxstep = 80
  mixing_beta =   2.0000000000d-01
/
ATOMIC_SPECIES
Ba     137.327 Ba.pbesol-spn-kjpaw_psl.1.0.0.UPF
In     114.818 In.pbesol-dn-rrkjus_psl.0.2.2.UPF
ATOMIC_POSITIONS angstrom
Ba           7.9143010200       4.4350500000       7.5960416000
Ba           3.8656510200       4.4350500000       8.8124584000
Ba           0.1829989800       1.4783500000       3.3429584000
Ba           4.2316489800       1.4783500000       2.1265416000
Ba           6.6600292500       4.4350500000       0.8083921000
Ba           2.6113792500       4.4350500000       4.6611079000
Ba           1.4372707500       1.4783500000      10.1306079000
Ba           5.4859207500       1.4783500000       6.2778921000
In           6.2243945100       4.4350500000       4.3219989000
In           2.1757445100       4.4350500000       1.1475011000
In           1.8729054900       1.4783500000       6.6170011000
In           5.9215554900       1.4783500000       9.7914989000
K_POINTS automatic
6 8 4 0 0 0
CELL_PARAMETERS angstrom
      8.0973000000       0.0000000000       0.0000000000
      0.0000000000       5.9134000000       0.0000000000
      0.0000000000       0.0000000000      10.9390000000
