&CONTROL
  calculation = 'scf'
  etot_conv_thr =   8.0000000000d-05
  forc_conv_thr =   1.0000000000d-04
  max_seconds =   3.4200000000d+04
  outdir = './out/'
  prefix = 'aiida'
  pseudo_dir = './pseudo/'
  restart_mode = 'restart'
  tprnfor = .true.
  tstress = .true.
  verbosity = 'high'
/
&SYSTEM
  degauss =   1.0000000000d-02
  ecutrho =   3.2000000000d+02
  ecutwfc =   4.0000000000d+01
  ibrav = 0
  nat = 8
  nosym = .false.
  nspin = 2
  ntyp = 2
  occupations = 'smearing'
  smearing = 'cold'
  starting_magnetization(1) =   1.0000000000d-01
  starting_magnetization(2) =   3.5714285714d-01
/
&ELECTRONS
  conv_thr =   1.6000000000d-09
  electron_maxstep = 80
  mixing_beta =   2.0000000000d-01
/
ATOMIC_SPECIES
Cl     35.453 cl_pbesol_v1.4.uspp.F.UPF
Mo     95.96 Mo_ONCV_PBEsol-1.0.upf
ATOMIC_POSITIONS angstrom
Mo           3.0460000000       3.4916335000       0.0000000000
Mo           3.0460000000       6.2533665000       0.0000000000
Cl           0.1759872244       1.6566500000       4.6529055606
Cl           0.1759872244       8.0883500000       4.6529055606
Cl           3.9550336564       1.6566500000       1.3353898842
Cl           3.9550336564       8.0883500000       1.3353898842
Cl           3.0478571595       0.0000000000       4.3475024929
Cl           1.0831637213       0.0000000000       1.6407929519
K_POINTS automatic
9 9 7 0 0 0
CELL_PARAMETERS angstrom
      3.0460000000       4.8725000000       0.0000000000
     -3.0460000000       4.8725000000       0.0000000000
     -1.9609791192       0.0000000000       5.9882954448
