&CONTROL
  calculation = 'scf'
  etot_conv_thr =   9.0000000000d-05
  forc_conv_thr =   1.0000000000d-04
  max_seconds =   3.4200000000d+04
  outdir = './out/'
  prefix = 'aiida'
  pseudo_dir = './pseudo/'
  tprnfor = .true.
  tstress = .true.
  verbosity = 'high'
/
&SYSTEM
  degauss =   1.0000000000d-02
  ecutrho =   1.0800000000d+03
  ecutwfc =   9.0000000000d+01
  ibrav = 0
  nat = 9
  nosym = .false.
  nspin = 2
  ntyp = 3
  occupations = 'smearing'
  smearing = 'cold'
  starting_magnetization(1) =   1.0000000000d-01
  starting_magnetization(2) =   3.1250000000d-01
  starting_magnetization(3) =   1.0000000000d-01
/
&ELECTRONS
  conv_thr =   1.8000000000d-09
  electron_maxstep = 80
  mixing_beta =   4.0000000000d-01
/
ATOMIC_SPECIES
Cl     35.453 cl_pbesol_v1.4.uspp.F.UPF
Fe     55.845 Fe.pbesol-spn-kjpaw_psl.0.2.1.UPF
N      14.0067 N.pbesol-theos.UPF
ATOMIC_POSITIONS angstrom
Fe           0.0000000000       0.0000000000       0.0000000000
N            7.7897136000       0.0000000000       0.0000000000
N            5.1060000000       2.6837136000      -0.0000000000
N           -0.0000000000      -0.0000000000       7.7897136000
N            5.1060000000       0.0000000000       7.5282864000
N            5.1060000000       7.5282864000       0.0000000000
N            2.4222864000      -0.0000000000      -0.0000000000
Cl           2.5530000000       2.5530000000       7.6590000000
Cl           2.5530000000       7.6590000000       7.6590000000
K_POINTS automatic
8 8 8 0 0 0
CELL_PARAMETERS angstrom
      0.0000000000       5.1060000000       5.1060000000
      5.1060000000       0.0000000000       5.1060000000
      5.1060000000       5.1060000000       0.0000000000
