&CONTROL
  calculation = 'scf'
  etot_conv_thr =   3.0000000000d-05
  forc_conv_thr =   1.0000000000d-04
  max_seconds =   6.8400000000d+03
  outdir = './out/'
  prefix = 'aiida'
  pseudo_dir = './pseudo/'
  tprnfor = .true.
  tstress = .true.
  verbosity = 'high'
/
&SYSTEM
  degauss =   2.0000000000d-02
  ecutrho =   7.8000000000d+02
  ecutwfc =   6.5000000000d+01
  ibrav = 0
  nat = 3
  nosym = .false.
  nspin = 2
  ntyp = 3
  occupations = 'smearing'
  smearing = 'cold'
  starting_magnetization(1) =   1.0000000000d-01
  starting_magnetization(2) =   3.3333333333d-01
  starting_magnetization(3) =   2.7777777778d-01
/
&ELECTRONS
  conv_thr =   6.0000000000d-10
  electron_maxstep = 100
  mixing_beta =   4.0000000000d-01
/
ATOMIC_SPECIES
As     74.9216 As.pbesol-n-rrkjus_psl.0.2.UPF
Mn     54.938045 mn_pbesol_v1.5.uspp.F.UPF
Ni     58.6934 ni_pbesol_v1.4.uspp.F.UPF
ATOMIC_POSITIONS angstrom
Mn           0.0000000000       0.0000000000       0.0000000000
Ni           2.6444500000       2.6444500000       7.9333500000
As           5.2889000000       0.0000000000       0.0000000000
K_POINTS automatic
7 7 7 0 0 0
CELL_PARAMETERS angstrom
      0.0000000000       5.2889000000       5.2889000000
      5.2889000000       0.0000000000       5.2889000000
      5.2889000000       5.2889000000       0.0000000000
