&CONTROL
  calculation = 'scf'
  etot_conv_thr =   9.0000000000d-05
  forc_conv_thr =   1.0000000000d-04
  max_seconds =   3.4200000000d+04
  outdir = './out/'
  prefix = 'aiida'
  pseudo_dir = './pseudo/'
  tprnfor = .true.
  tstress = .true.
  verbosity = 'high'
/
&SYSTEM
  degauss =   1.0000000000d-02
  ecutrho =   7.2000000000d+02
  ecutwfc =   9.0000000000d+01
  ibrav = 0
  nat = 9
  nosym = .false.
  nspin = 2
  ntyp = 3
  occupations = 'smearing'
  smearing = 'cold'
  starting_magnetization(1) =   1.0000000000d-01
  starting_magnetization(2) =   1.0000000000d-01
  starting_magnetization(3) =   1.0000000000d-01
/
&ELECTRONS
  conv_thr =   1.8000000000d-09
  electron_maxstep = 80
  mixing_beta =   4.0000000000d-01
/
ATOMIC_SPECIES
Cu     63.546 Cu.paw.z_11.ld1.psl.v1.0.0-low.upf
I      126.90447 I.pbesol-n-kjpaw_psl.0.2.UPF
N      14.0067 N.pbesol-theos.UPF
ATOMIC_POSITIONS angstrom
Cu           0.0000000000       0.0000000000       0.0000000000
I            2.6800000000       2.6800000000       8.0400000000
I            2.6800000000       8.0400000000       8.0400000000
N            8.1772160000      -0.0000000000      -0.0000000000
N            5.3600000000       2.8172160000      -0.0000000000
N            0.0000000000       0.0000000000       8.1772160000
N            5.3600000000      -0.0000000000       7.9027840000
N            5.3600000000       7.9027840000      -0.0000000000
N            2.5427840000       0.0000000000       0.0000000000
K_POINTS automatic
7 7 7 0 0 0
CELL_PARAMETERS angstrom
      0.0000000000       5.3600000000       5.3600000000
      5.3600000000       0.0000000000       5.3600000000
      5.3600000000       5.3600000000       0.0000000000
