&CONTROL
  calculation = 'scf'
  etot_conv_thr =   3.0000000000d-05
  forc_conv_thr =   1.0000000000d-04
  max_seconds =   3.4200000000d+04
  outdir = './out/'
  prefix = 'aiida'
  pseudo_dir = './pseudo/'
  restart_mode = 'restart'
  tprnfor = .true.
  tstress = .true.
  verbosity = 'high'
/
&SYSTEM
  degauss =   1.0000000000d-02
  ecutrho =   2.4000000000d+02
  ecutwfc =   5.0000000000d+01
  ibrav = 0
  nat = 3
  nosym = .false.
  nspin = 2
  ntyp = 2
  occupations = 'smearing'
  smearing = 'cold'
  starting_magnetization(1) =   1.0000000000d-01
  starting_magnetization(2) =   1.0000000000d-01
/
&ELECTRONS
  conv_thr =   6.0000000000d-10
  electron_maxstep = 80
  mixing_beta =   1.0000000000d-01
/
ATOMIC_SPECIES
Ba     137.327 Ba.pbesol-spn-kjpaw_psl.1.0.0.UPF
Hg     200.59 Hg_ONCV_PBEsol-1.0.upf
ATOMIC_POSITIONS angstrom
Ba           2.1100000000       2.1100000000       2.3240440000
Ba           0.0000000000      -0.0000000000       5.2609560000
Hg           0.0000000000       0.0000000000       0.0000000000
K_POINTS automatic
15 15 15 0 0 0
CELL_PARAMETERS angstrom
     -2.1100000000       2.1100000000       7.5850000000
      2.1100000000      -2.1100000000       7.5850000000
      2.1100000000       2.1100000000      -7.5850000000
