&CONTROL
  calculation = 'scf'
  etot_conv_thr =   9.0000000000d-05
  forc_conv_thr =   1.0000000000d-04
  max_seconds =   3.4200000000d+04
  outdir = './out/'
  prefix = 'aiida'
  pseudo_dir = './pseudo/'
  restart_mode = 'restart'
  tprnfor = .true.
  tstress = .true.
  verbosity = 'high'
/
&SYSTEM
  degauss =   1.0000000000d-02
  ecutrho =   4.0000000000d+02
  ecutwfc =   5.0000000000d+01
  ibrav = 0
  nat = 9
  nosym = .false.
  nspin = 2
  ntyp = 3
  occupations = 'smearing'
  smearing = 'cold'
  starting_magnetization(1) =   2.9411764706d-01
  starting_magnetization(2) =   1.0000000000d-01
  starting_magnetization(3) =   1.0000000000d-01
/
&ELECTRONS
  conv_thr =   1.8000000000d-09
  electron_maxstep = 80
  mixing_beta =   2.0000000000d-01
/
ATOMIC_SPECIES
Co     58.933195 co_pbesol_v1.2.uspp.F.UPF
I      126.90447 I.pbesol-n-kjpaw_psl.0.2.UPF
O      15.9994 O.pbesol-n-kjpaw_psl.0.1.UPF
ATOMIC_POSITIONS angstrom
Co           0.0000000000       0.0000000000       0.0000000000
I            0.0000000000       4.1915629543       2.3950000000
I            3.6300000000       2.0957814772       2.3950000000
O            2.8495500000       4.9355653787       1.6956600000
O            5.6991000000       0.0000000000       3.0943400000
O           -2.8495500000       4.9355653787       3.0943400000
O           -0.7804500000       1.3517790528       1.6956600000
O            0.7804500000       1.3517790528       3.0943400000
O            1.5609000000       0.0000000000       1.6956600000
K_POINTS automatic
7 7 9 0 0 0
CELL_PARAMETERS angstrom
      7.2600000000       0.0000000000       0.0000000000
     -3.6300000000       6.2873444315       0.0000000000
      0.0000000000       0.0000000000       4.7900000000
