&CONTROL
  calculation = 'scf'
  etot_conv_thr =   1.0000000000d-04
  forc_conv_thr =   1.0000000000d-04
  max_seconds =   3.4200000000d+04
  outdir = './out/'
  prefix = 'aiida'
  pseudo_dir = './pseudo/'
  restart_mode = 'restart'
  tprnfor = .true.
  tstress = .true.
  verbosity = 'high'
/
&SYSTEM
  degauss =   1.0000000000d-02
  ecutrho =   4.8000000000d+02
  ecutwfc =   6.0000000000d+01
  ibrav = 0
  nat = 10
  nosym = .false.
  nspin = 2
  ntyp = 3
  occupations = 'smearing'
  smearing = 'cold'
  starting_magnetization(1) =   1.0000000000d-01
  starting_magnetization(2) =   1.0000000000d-01
  starting_magnetization(3) =   4.5454545455d-01
/
&ELECTRONS
  conv_thr =   2.0000000000d-09
  electron_maxstep = 80
  mixing_beta =   1.0000000000d-01
/
ATOMIC_SPECIES
F      18.9984032 f_pbesol_v1.4.uspp.F.UPF
N      14.0067 N.pbesol-theos.UPF
Sc     44.955912 Sc_ONCV_PBEsol-1.0.upf
ATOMIC_POSITIONS angstrom
Sc           0.0000000000       0.0000000000       0.0000000000
N            2.3150000000       2.3150000000       6.9450000000
N            2.3150000000       6.9450000000       6.9450000000
N            4.6300000000       0.0000000000       0.0000000000
F            7.3154000000      -0.0000000000      -0.0000000000
F            4.6300000000       2.6854000000      -0.0000000000
F            0.0000000000       0.0000000000       7.3154000000
F            4.6300000000       0.0000000000       6.5746000000
F            4.6300000000       6.5746000000       0.0000000000
F            1.9446000000      -0.0000000000      -0.0000000000
K_POINTS automatic
8 8 8 0 0 0
CELL_PARAMETERS angstrom
      0.0000000000       4.6300000000       4.6300000000
      4.6300000000       0.0000000000       4.6300000000
      4.6300000000       4.6300000000       0.0000000000
