&CONTROL
  calculation = 'scf'
  etot_conv_thr =   1.0000000000d-04
  forc_conv_thr =   1.0000000000d-04
  max_seconds =   3.4200000000d+04
  outdir = './out/'
  prefix = 'aiida'
  pseudo_dir = './pseudo/'
  restart_mode = 'restart'
  tprnfor = .true.
  tstress = .true.
  verbosity = 'high'
/
&SYSTEM
  degauss =   1.0000000000d-02
  ecutrho =   1.0800000000d+03
  ecutwfc =   9.0000000000d+01
  ibrav = 0
  nat = 10
  nosym = .false.
  nspin = 2
  ntyp = 3
  occupations = 'smearing'
  smearing = 'cold'
  starting_magnetization(1) =   1.0000000000d-01
  starting_magnetization(2) =   3.1250000000d-01
  starting_magnetization(3) =   1.0000000000d-01
/
&ELECTRONS
  conv_thr =   2.0000000000d-09
  electron_maxstep = 80
  mixing_beta =   2.0000000000d-01
/
ATOMIC_SPECIES
C      12.0107 C.pbesol-n-kjpaw_psl.1.0.0.UPF
Fe     55.845 Fe.pbesol-spn-kjpaw_psl.0.2.1.UPF
O      15.9994 O.pbesol-n-kjpaw_psl.0.1.UPF
ATOMIC_POSITIONS angstrom
Fe           2.1840000000       1.2609329879       4.2500000000
Fe          -0.0000000000       0.0000000000       6.3750000000
C           -0.0000000000       2.5218659758       5.3125000000
C           -0.0000000000       0.0000000000       3.1875000000
O           -0.6279000000       1.4343112737       5.3125000000
O            3.1122000000      -0.0000000000       3.1875000000
O           -1.5561000000       2.6952442617       3.1875000000
O           -0.6279000000       3.6094206779       5.3125000000
O            0.6279000000       1.0875547021       3.1875000000
O            1.2558000000       2.5218659758       5.3125000000
K_POINTS automatic
12 12 12 0 0 0
CELL_PARAMETERS angstrom
      2.1840000000       1.2609329879       4.2500000000
     -2.1840000000       1.2609329879       4.2500000000
      0.0000000000      -2.5218659758       4.2500000000
