&CONTROL
  calculation = 'scf'
  etot_conv_thr =   1.0000000000d-04
  forc_conv_thr =   1.0000000000d-04
  max_seconds =   3.4200000000d+04
  outdir = './out/'
  prefix = 'aiida'
  pseudo_dir = './pseudo/'
  tprnfor = .true.
  tstress = .true.
  verbosity = 'high'
/
&SYSTEM
  degauss =   1.0000000000d-02
  ecutrho =   3.6000000000d+02
  ecutwfc =   4.5000000000d+01
  ibrav = 0
  nat = 10
  nosym = .false.
  nspin = 2
  ntyp = 4
  occupations = 'smearing'
  smearing = 'cold'
  starting_magnetization(1) =   1.0000000000d-01
  starting_magnetization(2) =   1.0000000000d-01
  starting_magnetization(3) =   2.7777777778d-01
  starting_magnetization(4) =   1.0000000000d-01
/
&ELECTRONS
  conv_thr =   2.0000000000d-09
  electron_maxstep = 80
  mixing_beta =   4.0000000000d-01
/
ATOMIC_SPECIES
F      18.9984032 f_pbesol_v1.4.uspp.F.UPF
Na     22.98977 na_pbesol_v1.5.uspp.F.UPF
Ni     58.6934 ni_pbesol_v1.4.uspp.F.UPF
Rb     85.4678 Rb_ONCV_PBEsol-1.0.upf
ATOMIC_POSITIONS angstrom
Rb           2.0940000000       2.0940000000       6.2820000000
Rb           2.0940000000       6.2820000000       6.2820000000
Na           4.1880000000       0.0000000000       0.0000000000
Ni           0.0000000000       0.0000000000       0.0000000000
F            6.4914000000       0.0000000000       0.0000000000
F            4.1880000000       2.3034000000      -0.0000000000
F           -0.0000000000      -0.0000000000       6.4914000000
F            4.1880000000       0.0000000000       6.0726000000
F            4.1880000000       6.0726000000       0.0000000000
F            1.8846000000      -0.0000000000      -0.0000000000
K_POINTS automatic
9 9 9 0 0 0
CELL_PARAMETERS angstrom
      0.0000000000       4.1880000000       4.1880000000
      4.1880000000       0.0000000000       4.1880000000
      4.1880000000       4.1880000000       0.0000000000
