&CONTROL
  calculation = 'scf'
  etot_conv_thr =   1.2000000000d-04
  forc_conv_thr =   1.0000000000d-04
  max_seconds =   3.4200000000d+04
  outdir = './out/'
  prefix = 'aiida'
  pseudo_dir = './pseudo/'
  restart_mode = 'restart'
  tprnfor = .true.
  tstress = .true.
  verbosity = 'high'
/
&SYSTEM
  degauss =   1.0000000000d-02
  ecutrho =   3.2000000000d+02
  ecutwfc =   4.0000000000d+01
  ibrav = 0
  nat = 12
  nosym = .false.
  nspin = 2
  ntyp = 3
  occupations = 'smearing'
  smearing = 'cold'
  starting_magnetization(1) =   1.0000000000d-01
  starting_magnetization(2) =   1.0000000000d-01
  starting_magnetization(3) =   1.0000000000d-01
/
&ELECTRONS
  conv_thr =   2.4000000000d-09
  electron_maxstep = 80
  mixing_beta =   2.0000000000d-01
/
ATOMIC_SPECIES
Ba     137.327 Ba.pbesol-spn-kjpaw_psl.1.0.0.UPF
Ca     40.078 ca_pbesol_v1.uspp.F.UPF
Ge     72.64 ge_pbesol_v1.4.uspp.F.UPF
ATOMIC_POSITIONS angstrom
Ba           8.3350400000       3.8250000000       6.2351700000
Ba           4.0650400000       3.8250000000       7.5798300000
Ba           0.2049600000       1.2750000000       2.9748300000
Ba           4.4749600000       1.2750000000       1.6301700000
Ca           7.3273200000       3.8250000000       0.6631200000
Ca           3.0573200000       3.8250000000       3.9418800000
Ca           1.2126800000       1.2750000000       8.5468800000
Ca           5.4826800000       1.2750000000       5.2681200000
Ge           6.1658800000       3.8250000000       3.6103200000
Ge           1.8958800000       3.8250000000       0.9946800000
Ge           2.3741200000       1.2750000000       5.5996800000
Ge           6.6441200000       1.2750000000       8.2153200000
K_POINTS automatic
5 9 5 0 0 0
CELL_PARAMETERS angstrom
      8.5400000000       0.0000000000       0.0000000000
      0.0000000000       5.1000000000       0.0000000000
      0.0000000000       0.0000000000       9.2100000000
