&CONTROL
  calculation = 'scf'
  etot_conv_thr =   4.0000000000d-05
  forc_conv_thr =   1.0000000000d-04
  max_seconds =   3.4200000000d+04
  outdir = './out/'
  prefix = 'aiida'
  pseudo_dir = './pseudo/'
  tprnfor = .true.
  tstress = .true.
  verbosity = 'high'
/
&SYSTEM
  degauss =   1.0000000000d-02
  ecutrho =   3.6000000000d+02
  ecutwfc =   4.5000000000d+01
  ibrav = 0
  nat = 4
  nosym = .false.
  nspin = 2
  ntyp = 3
  occupations = 'smearing'
  smearing = 'cold'
  starting_magnetization(1) =   2.9411764706d-01
  starting_magnetization(2) =   3.5714285714d-01
  starting_magnetization(3) =   3.1250000000d-01
/
&ELECTRONS
  conv_thr =   8.0000000000d-10
  electron_maxstep = 80
  mixing_beta =   4.0000000000d-01
/
ATOMIC_SPECIES
Co     58.933195 co_pbesol_v1.2.uspp.F.UPF
Cr     51.9961 cr_pbesol_v1.5.uspp.F.UPF
Pt     195.084 pt_pbesol_v1.4.uspp.F.UPF
ATOMIC_POSITIONS angstrom
Cr           0.0000000000       0.0000000000       0.0000000000
Co           1.9095000000       1.9095000000       0.0000000000
Pt           1.9095000000       0.0000000000       1.8730000000
Pt           0.0000000000       1.9095000000       1.8730000000
K_POINTS automatic
11 11 12 0 0 0
CELL_PARAMETERS angstrom
      3.8190000000       0.0000000000       0.0000000000
      0.0000000000       3.8190000000       0.0000000000
      0.0000000000       0.0000000000       3.7460000000
