&CONTROL
  calculation = 'scf'
  etot_conv_thr =   5.0000000000d-05
  forc_conv_thr =   1.0000000000d-04
  max_seconds =   3.4200000000d+04
  outdir = './out/'
  prefix = 'aiida'
  pseudo_dir = './pseudo/'
  restart_mode = 'restart'
  tprnfor = .true.
  tstress = .true.
  verbosity = 'high'
/
&SYSTEM
  degauss =   1.0000000000d-02
  ecutrho =   7.8000000000d+02
  ecutwfc =   6.5000000000d+01
  ibrav = 0
  nat = 5
  nosym = .false.
  nspin = 2
  ntyp = 2
  occupations = 'smearing'
  smearing = 'cold'
  starting_magnetization(1) =   3.3333333333d-01
  starting_magnetization(2) =   1.0000000000d-01
/
&ELECTRONS
  conv_thr =   1.0000000000d-09
  electron_maxstep = 80
  mixing_beta =   2.0000000000d-01
/
ATOMIC_SPECIES
Mn     54.938045 mn_pbesol_v1.5.uspp.F.UPF
N      14.0067 N.pbesol-theos.UPF
ATOMIC_POSITIONS angstrom
Mn           1.9340000000       0.0000000000       0.0000000000
Mn           0.0000000000       1.9340000000       0.0000000000
Mn           0.0000000000       0.0000000000       1.9340000000
Mn           1.9340000000       1.9340000000       1.9340000000
N            0.0000000000       0.0000000000       0.0000000000
K_POINTS automatic
11 11 11 0 0 0
CELL_PARAMETERS angstrom
      3.8680000000       0.0000000000       0.0000000000
      0.0000000000       3.8680000000       0.0000000000
      0.0000000000       0.0000000000       3.8680000000
