&CONTROL
  calculation = 'scf'
  etot_conv_thr =   4.0000000000d-05
  forc_conv_thr =   1.0000000000d-04
  max_seconds =   3.4200000000d+04
  outdir = './out/'
  prefix = 'aiida'
  pseudo_dir = './pseudo/'
  tprnfor = .true.
  tstress = .true.
  verbosity = 'high'
/
&SYSTEM
  degauss =   1.0000000000d-02
  ecutrho =   4.0000000000d+02
  ecutwfc =   5.0000000000d+01
  ibrav = 0
  nat = 4
  nosym = .false.
  nspin = 2
  ntyp = 4
  occupations = 'smearing'
  smearing = 'cold'
  starting_magnetization(1) =   3.5714285714d-01
  starting_magnetization(2) =   4.1666666667d-01
  starting_magnetization(3) =   1.0000000000d-01
  starting_magnetization(4) =   3.8461538462d-01
/
&ELECTRONS
  conv_thr =   8.0000000000d-10
  electron_maxstep = 80
  mixing_beta =   4.0000000000d-01
/
ATOMIC_SPECIES
Cr     51.9961 cr_pbesol_v1.5.uspp.F.UPF
Hf     178.49 Hf-sp.oncvpsp.upf
In     114.818 In.pbesol-dn-rrkjus_psl.0.2.2.UPF
V      50.9415 v_pbesol_v1.4.uspp.F.UPF
ATOMIC_POSITIONS angstrom
Hf           1.5950000000       1.5950000000       1.5950000000
V            3.1900000000       0.0000000000       0.0000000000
Cr           0.0000000000       0.0000000000       0.0000000000
In           1.5950000000       1.5950000000       4.7850000000
K_POINTS automatic
12 12 12 0 0 0
CELL_PARAMETERS angstrom
      0.0000000000       3.1900000000       3.1900000000
      3.1900000000       0.0000000000       3.1900000000
      3.1900000000       3.1900000000       0.0000000000
