&CONTROL
  calculation = 'scf'
  etot_conv_thr =   5.0000000000d-05
  forc_conv_thr =   1.0000000000d-04
  max_seconds =   6.8400000000d+03
  outdir = './out/'
  prefix = 'aiida'
  pseudo_dir = './pseudo/'
  tprnfor = .true.
  tstress = .true.
  verbosity = 'high'
/
&SYSTEM
  degauss =   2.0000000000d-02
  ecutrho =   4.8000000000d+02
  ecutwfc =   6.0000000000d+01
  ibrav = 0
  nat = 5
  nosym = .false.
  nspin = 2
  ntyp = 3
  occupations = 'smearing'
  smearing = 'cold'
  starting_magnetization(1) =   1.0000000000d-01
  starting_magnetization(2) =   1.0000000000d-01
  starting_magnetization(3) =   1.0000000000d-01
/
&ELECTRONS
  conv_thr =   1.0000000000d-09
  electron_maxstep = 500
  mixing_beta =   4.0000000000d-01
/
ATOMIC_SPECIES
Br     79.904 br_pbesol_v1.4.uspp.F.UPF
N      14.0067 N.pbesol-theos.UPF
O      15.9994 O.pbesol-n-kjpaw_psl.0.1.UPF
ATOMIC_POSITIONS angstrom
Br          -0.0000000000       3.5784169684       1.3452166667
N            0.0000000000      -0.0000000000       0.0000000000
O           -1.3012701000       2.8271283259       0.6917104100
O            1.3012701000       2.8271283259       0.6917104100
O           -0.0000000000       5.0809942535       0.6917104100
K_POINTS automatic
10 10 10 0 0 0
CELL_PARAMETERS angstrom
      3.0990000000       1.7892084842       2.6904333333
     -3.0990000000       1.7892084842       2.6904333333
      0.0000000000      -3.5784169684       2.6904333333
