&CONTROL
  calculation = 'scf'
  etot_conv_thr =   9.0000000000d-05
  forc_conv_thr =   1.0000000000d-04
  max_seconds =   3.4200000000d+04
  outdir = './out/'
  prefix = 'aiida'
  pseudo_dir = './pseudo/'
  tprnfor = .true.
  tstress = .true.
  verbosity = 'high'
/
&SYSTEM
  degauss =   1.0000000000d-02
  ecutrho =   4.8000000000d+02
  ecutwfc =   6.0000000000d+01
  ibrav = 0
  nat = 9
  nosym = .false.
  nspin = 2
  ntyp = 3
  occupations = 'smearing'
  smearing = 'cold'
  starting_magnetization(1) =   1.0000000000d-01
  starting_magnetization(2) =   1.0000000000d-01
  starting_magnetization(3) =   2.7777777778d-01
/
&ELECTRONS
  conv_thr =   1.8000000000d-09
  electron_maxstep = 80
  mixing_beta =   4.0000000000d-01
/
ATOMIC_SPECIES
Br     79.904 br_pbesol_v1.4.uspp.F.UPF
N      14.0067 N.pbesol-theos.UPF
Ni     58.6934 ni_pbesol_v1.4.uspp.F.UPF
ATOMIC_POSITIONS angstrom
Ni           0.0000000000       0.0000000000       0.0000000000
Br           2.5955000000       2.5955000000       7.7865000000
Br           2.5955000000       7.7865000000       7.7865000000
N            7.9193896000      -0.0000000000      -0.0000000000
N            5.1910000000       2.7283896000      -0.0000000000
N            0.0000000000       0.0000000000       7.9193896000
N            5.1910000000      -0.0000000000       7.6536104000
N            5.1910000000       7.6536104000      -0.0000000000
N            2.4626104000       0.0000000000       0.0000000000
K_POINTS automatic
7 7 7 0 0 0
CELL_PARAMETERS angstrom
      0.0000000000       5.1910000000       5.1910000000
      5.1910000000       0.0000000000       5.1910000000
      5.1910000000       5.1910000000       0.0000000000
