&CONTROL
  calculation = 'scf'
  etot_conv_thr =   8.0000000000d-05
  forc_conv_thr =   1.0000000000d-04
  max_seconds =   3.4200000000d+04
  outdir = './out/'
  prefix = 'aiida'
  pseudo_dir = './pseudo/'
  tprnfor = .true.
  tstress = .true.
  verbosity = 'high'
/
&SYSTEM
  degauss =   1.0000000000d-02
  ecutrho =   2.4000000000d+02
  ecutwfc =   5.0000000000d+01
  ibrav = 0
  nat = 8
  nosym = .false.
  nspin = 2
  ntyp = 2
  occupations = 'smearing'
  smearing = 'cold'
  starting_magnetization(1) =   1.0000000000d-01
  starting_magnetization(2) =   1.0000000000d-01
/
&ELECTRONS
  conv_thr =   1.6000000000d-09
  electron_maxstep = 80
  mixing_beta =   4.0000000000d-01
/
ATOMIC_SPECIES
Ag     107.8682 Ag_ONCV_PBEsol-1.0.upf
Ba     137.327 Ba.pbesol-spn-kjpaw_psl.1.0.0.UPF
ATOMIC_POSITIONS angstrom
Ba           2.7702400000       3.7365000000       0.8579790000
Ba           7.0987400000       3.7365000000       2.4675210000
Ba           5.8867600000       1.2455000000       5.7930210000
Ba           1.5582600000       1.2455000000       4.1834790000
Ag           4.0428190000       3.7365000000       4.1967810000
Ag           8.3713190000       3.7365000000       5.7797190000
Ag           4.6141810000       1.2455000000       2.4542190000
Ag           0.2856810000       1.2455000000       0.8712810000
K_POINTS automatic
5 9 7 0 0 0
CELL_PARAMETERS angstrom
      8.6570000000       0.0000000000       0.0000000000
      0.0000000000       4.9820000000       0.0000000000
      0.0000000000       0.0000000000       6.6510000000
