&CONTROL
  calculation = 'scf'
  etot_conv_thr =   8.0000000000d-05
  forc_conv_thr =   1.0000000000d-04
  max_seconds =   3.4200000000d+04
  outdir = './out/'
  prefix = 'aiida'
  pseudo_dir = './pseudo/'
  tprnfor = .true.
  tstress = .true.
  verbosity = 'high'
/
&SYSTEM
  degauss =   1.0000000000d-02
  ecutrho =   7.8000000000d+02
  ecutwfc =   6.5000000000d+01
  ibrav = 0
  nat = 8
  nosym = .false.
  nspin = 2
  ntyp = 3
  occupations = 'smearing'
  smearing = 'cold'
  starting_magnetization(1) =   1.0000000000d-01
  starting_magnetization(2) =   4.1666666667d-01
  starting_magnetization(3) =   3.3333333333d-01
/
&ELECTRONS
  conv_thr =   1.6000000000d-09
  electron_maxstep = 80
  mixing_beta =   4.0000000000d-01
/
ATOMIC_SPECIES
F      18.9984032 f_pbesol_v1.4.uspp.F.UPF
Hf     178.49 Hf-sp.oncvpsp.upf
Mn     54.938045 mn_pbesol_v1.5.uspp.F.UPF
ATOMIC_POSITIONS angstrom
Hf           4.0800000000       0.0000000000       0.0000000000
Mn           0.0000000000       0.0000000000       0.0000000000
F            6.3892800000       0.0000000000       0.0000000000
F            4.0800000000       2.3092800000      -0.0000000000
F           -0.0000000000      -0.0000000000       6.3892800000
F            4.0800000000       0.0000000000       5.8507200000
F            4.0800000000       5.8507200000       0.0000000000
F            1.7707200000      -0.0000000000      -0.0000000000
K_POINTS automatic
9 9 9 0 0 0
CELL_PARAMETERS angstrom
      0.0000000000       4.0800000000       4.0800000000
      4.0800000000       0.0000000000       4.0800000000
      4.0800000000       4.0800000000       0.0000000000
