&CONTROL
  calculation = 'scf'
  etot_conv_thr =   4.0000000000d-05
  forc_conv_thr =   1.0000000000d-04
  max_seconds =   3.4200000000d+04
  outdir = './out/'
  prefix = 'aiida'
  pseudo_dir = './pseudo/'
  restart_mode = 'restart'
  tprnfor = .true.
  tstress = .true.
  verbosity = 'high'
/
&SYSTEM
  degauss =   1.0000000000d-02
  ecutrho =   7.8000000000d+02
  ecutwfc =   7.0000000000d+01
  ibrav = 0
  nat = 4
  nosym = .false.
  nspin = 2
  ntyp = 2
  occupations = 'smearing'
  smearing = 'cold'
  starting_magnetization(1) =   1.0000000000d-01
  starting_magnetization(2) =   3.3333333333d-01
/
&ELECTRONS
  conv_thr =   8.0000000000d-10
  electron_maxstep = 80
  mixing_beta =   2.0000000000d-01
/
ATOMIC_SPECIES
Ga     69.723 Ga.pbesol-dn-kjpaw_psl.1.0.0.UPF
Mn     54.938045 mn_pbesol_v1.5.uspp.F.UPF
ATOMIC_POSITIONS angstrom
Mn           1.4550000000       1.4550000000       4.3650000000
Mn           1.4550000000       4.3650000000       4.3650000000
Mn           2.9100000000       0.0000000000       0.0000000000
Ga           0.0000000000       0.0000000000       0.0000000000
K_POINTS automatic
13 13 13 0 0 0
CELL_PARAMETERS angstrom
      0.0000000000       2.9100000000       2.9100000000
      2.9100000000       0.0000000000       2.9100000000
      2.9100000000       2.9100000000       0.0000000000
