&CONTROL
  calculation = 'scf'
  etot_conv_thr =   4.0000000000d-05
  forc_conv_thr =   1.0000000000d-04
  max_seconds =   6.8400000000d+03
  outdir = './out/'
  prefix = 'aiida'
  pseudo_dir = './pseudo/'
  restart_mode = 'from_scratch'
  tprnfor = .true.
  tstress = .true.
  verbosity = 'high'
/
&SYSTEM
  degauss =   2.0000000000d-02
  ecutrho =   4.8000000000d+02
  ecutwfc =   6.0000000000d+01
  ibrav = 0
  nat = 4
  nbnd = 24
  nosym = .false.
  nspin = 2
  ntyp = 3
  occupations = 'smearing'
  smearing = 'cold'
  starting_magnetization(1) =   1.0000000000d-01
  starting_magnetization(2) =   1.0000000000d-01
  starting_magnetization(3) =   1.0000000000d-01
/
&ELECTRONS
  conv_thr =   8.0000000000d-10
  diagonalization = 'rmm-paro'
  electron_maxstep = 100
  mixing_beta =   4.0000000000d-01
  startingpot = 'file'
/
ATOMIC_SPECIES
Ba     137.327 Ba.pbesol-spn-kjpaw_psl.1.0.0.UPF
Cl     35.453 cl_pbesol_v1.4.uspp.F.UPF
N      14.0067 N.pbesol-theos.UPF
ATOMIC_POSITIONS angstrom
Ba          -0.0000000000      -0.0000000000      17.3673887800
Ba          -0.0000000000       2.3684640093      20.3124445533
N            2.0511500000       1.1842320046      18.8399166667
Cl           0.0000000000       0.0000000000       0.0000000000
K_POINTS automatic
12 12 12 0 0 0
CELL_PARAMETERS angstrom
      2.0511500000       1.1842320046       7.5359666667
     -2.0511500000       1.1842320046       7.5359666667
      0.0000000000      -2.3684640093       7.5359666667
