&CONTROL
  calculation = 'scf'
  etot_conv_thr =   1.0000000000d-04
  forc_conv_thr =   1.0000000000d-04
  max_seconds =   3.4200000000d+04
  outdir = './out/'
  prefix = 'aiida'
  pseudo_dir = './pseudo/'
  tprnfor = .true.
  tstress = .true.
  verbosity = 'high'
/
&SYSTEM
  degauss =   1.0000000000d-02
  ecutrho =   4.8000000000d+02
  ecutwfc =   6.0000000000d+01
  ibrav = 0
  nat = 10
  nosym = .false.
  nspin = 2
  ntyp = 3
  occupations = 'smearing'
  smearing = 'cold'
  starting_magnetization(1) =   1.0000000000d-01
  starting_magnetization(2) =   1.0000000000d-01
  starting_magnetization(3) =   1.0000000000d-01
/
&ELECTRONS
  conv_thr =   2.0000000000d-09
  electron_maxstep = 80
  mixing_beta =   4.0000000000d-01
/
ATOMIC_SPECIES
Al     26.981538 Al.pbesol-n-kjpaw_psl.1.0.0.UPF
F      18.9984032 f_pbesol_v1.4.uspp.F.UPF
N      14.0067 N.pbesol-theos.UPF
ATOMIC_POSITIONS angstrom
Al           0.0000000000       0.0000000000       0.0000000000
N            2.2350250000       2.2350250000       6.7050750000
N            2.2350250000       6.7050750000       6.7050750000
N            4.4700500000       0.0000000000       0.0000000000
F            7.1824763400       0.0000000000       0.0000000000
F            4.4700500000       2.7124263400      -0.0000000000
F           -0.0000000000      -0.0000000000       7.1824763400
F            4.4700500000       0.0000000000       6.2276736600
F            4.4700500000       6.2276736600       0.0000000000
F            1.7576236600      -0.0000000000      -0.0000000000
K_POINTS automatic
9 9 9 0 0 0
CELL_PARAMETERS angstrom
      0.0000000000       4.4700500000       4.4700500000
      4.4700500000       0.0000000000       4.4700500000
      4.4700500000       4.4700500000       0.0000000000
