&CONTROL
  calculation = 'scf'
  etot_conv_thr =   8.0000000000d-05
  forc_conv_thr =   1.0000000000d-04
  max_seconds =   3.4200000000d+04
  outdir = './out/'
  prefix = 'aiida'
  pseudo_dir = './pseudo/'
  tprnfor = .true.
  tstress = .true.
  verbosity = 'high'
/
&SYSTEM
  degauss =   1.0000000000d-02
  ecutrho =   4.8000000000d+02
  ecutwfc =   6.0000000000d+01
  ibrav = 0
  nat = 8
  nosym = .false.
  nspin = 2
  ntyp = 2
  occupations = 'smearing'
  smearing = 'cold'
  starting_magnetization(1) =   2.9411764706d-01
  starting_magnetization(2) =   1.0000000000d-01
/
&ELECTRONS
  conv_thr =   1.6000000000d-09
  electron_maxstep = 80
  mixing_beta =   4.0000000000d-01
/
ATOMIC_SPECIES
Co     58.933195 co_pbesol_v1.2.uspp.F.UPF
K      39.0983 K.pbesol-spn-kjpaw_psl.1.0.0.UPF
ATOMIC_POSITIONS angstrom
K            6.6479600000       1.6800000000       1.6454200000
K            6.1120400000       5.0400000000       9.6245800000
K           12.4920400000       5.0400000000       7.2804200000
K            0.2679600000       1.6800000000       3.9895800000
Co           8.7661200000       1.6800000000       6.6380300000
Co           3.9938800000       5.0400000000       4.6319700000
Co          10.3738800000       5.0400000000       1.0030300000
Co           2.3861200000       1.6800000000      10.2669700000
K_POINTS automatic
4 7 4 0 0 0
CELL_PARAMETERS angstrom
     12.7600000000       0.0000000000       0.0000000000
      0.0000000000       6.7200000000       0.0000000000
      0.0000000000       0.0000000000      11.2700000000
