&CONTROL
  calculation = 'scf'
  etot_conv_thr =   1.2000000000d-04
  forc_conv_thr =   1.0000000000d-04
  max_seconds =   3.4200000000d+04
  outdir = './out/'
  prefix = 'aiida'
  pseudo_dir = './pseudo/'
  tprnfor = .true.
  tstress = .true.
  verbosity = 'high'
/
&SYSTEM
  degauss =   1.0000000000d-02
  ecutrho =   4.8000000000d+02
  ecutwfc =   6.0000000000d+01
  ibrav = 0
  nat = 12
  nosym = .false.
  nspin = 2
  ntyp = 2
  occupations = 'smearing'
  smearing = 'cold'
  starting_magnetization(1) =   1.0000000000d-01
  starting_magnetization(2) =   1.0000000000d-01
/
&ELECTRONS
  conv_thr =   2.4000000000d-09
  electron_maxstep = 80
  mixing_beta =   4.0000000000d-01
/
ATOMIC_SPECIES
N      14.0067 N.pbesol-theos.UPF
O      15.9994 O.pbesol-n-kjpaw_psl.0.1.UPF
ATOMIC_POSITIONS angstrom
N            2.1393892627       3.4332340000       3.7085157767
N            1.7939234790       1.1937660000       8.1982443200
N            0.9111449536       8.0602340000       0.7812127665
N            0.5656791700       5.8207660000       5.2709413098
N            1.9833492362       8.0972500000       3.5738239204
N            1.6378834526       5.7837500000       8.0635524637
N            1.0671849801       3.4702500000       0.9159046228
N            0.7217191965       1.1567500000       5.4056331661
O            3.0825319294       1.2307820000       2.3526177567
O            2.7370661457       3.3962180000       6.8423463000
O           -0.0319977130       5.8577820000       2.1371107866
O           -0.3774634967       8.0232180000       6.6268393299
K_POINTS automatic
13 5 5 0 0 0
CELL_PARAMETERS angstrom
      3.3960000000       0.0000000000       0.0000000000
      0.0000000000       9.2540000000       0.0000000000
     -0.6909315673       0.0000000000       8.9794570866
