&CONTROL
  calculation = 'scf'
  etot_conv_thr =   1.5000000000d-04
  forc_conv_thr =   1.0000000000d-04
  max_seconds =   3.4200000000d+04
  outdir = './out/'
  prefix = 'aiida'
  pseudo_dir = './pseudo/'
  tprnfor = .true.
  tstress = .true.
  verbosity = 'high'
/
&SYSTEM
  degauss =   1.0000000000d-02
  ecutrho =   4.0000000000d+02
  ecutwfc =   5.0000000000d+01
  ibrav = 0
  nat = 15
  nosym = .false.
  nspin = 2
  ntyp = 3
  occupations = 'smearing'
  smearing = 'cold'
  starting_magnetization(1) =   1.0000000000d-01
  starting_magnetization(2) =   1.0000000000d-01
  starting_magnetization(3) =   3.1250000000d-01
/
&ELECTRONS
  conv_thr =   3.0000000000d-09
  electron_maxstep = 80
  mixing_beta =   4.0000000000d-01
/
ATOMIC_SPECIES
Ba     137.327 Ba.pbesol-spn-kjpaw_psl.1.0.0.UPF
O      15.9994 O.pbesol-n-kjpaw_psl.0.1.UPF
Ru     101.07 Ru_ONCV_PBEsol-1.0.upf
ATOMIC_POSITIONS angstrom
Ba          -0.0000000000      -0.0000000000      16.9028607500
Ba          -0.0000000000       3.3201104580      19.0989725833
Ba           0.0000000000       0.0000000000       0.0000000000
Ru           2.8753000000       1.6600552290      20.5174448167
Ru           2.8753000000       1.6600552290      15.4843885167
Ru           2.8753000000       1.6600552290      18.0009166667
O            2.8753000000       0.0438254580      16.7430126100
O            1.4756039600       2.4681701145      16.7430126100
O            1.4756039600       0.8519403435      19.2588207233
O            4.2749960400       0.8519403435      19.2588207233
O            2.8753000000       3.2762850000      19.2588207233
O            4.2749960400       2.4681701145      16.7430126100
O            1.4376500000       2.4900828435       0.0000000000
O            2.8753000000       0.0000000000       0.0000000000
O           -1.4376500000       2.4900828435       0.0000000000
K_POINTS automatic
9 9 9 0 0 0
CELL_PARAMETERS angstrom
      2.8753000000       1.6600552290       7.2003666667
     -2.8753000000       1.6600552290       7.2003666667
      0.0000000000      -3.3201104580       7.2003666667
