&CONTROL
  calculation = 'scf'
  etot_conv_thr =   1.0000000000d-04
  forc_conv_thr =   1.0000000000d-04
  max_seconds =   3.4200000000d+04
  outdir = './out/'
  prefix = 'aiida'
  pseudo_dir = './pseudo/'
  tprnfor = .true.
  tstress = .true.
  verbosity = 'high'
/
&SYSTEM
  degauss =   1.0000000000d-02
  ecutrho =   4.8000000000d+02
  ecutwfc =   6.0000000000d+01
  ibrav = 0
  nat = 10
  nosym = .false.
  nspin = 2
  ntyp = 3
  occupations = 'smearing'
  smearing = 'cold'
  starting_magnetization(1) =   1.0000000000d-01
  starting_magnetization(2) =   1.0000000000d-01
  starting_magnetization(3) =   1.0000000000d-01
/
&ELECTRONS
  conv_thr =   2.0000000000d-09
  electron_maxstep = 80
  mixing_beta =   4.0000000000d-01
/
ATOMIC_SPECIES
F      18.9984032 f_pbesol_v1.4.uspp.F.UPF
N      14.0067 N.pbesol-theos.UPF
Sn     118.71 sn_pbesol_v1.4.uspp.F.UPF
ATOMIC_POSITIONS angstrom
Sn           7.5856137709       0.9396830000       3.4622136126
Sn           0.2775277849       0.9396830000       1.9627528753
N            3.9279075847       0.7544900000       4.8282201742
N            3.9352339711       0.7544900000       0.5967463137
F            6.7763060209       0.0000000000       5.0940435321
F            1.0868355349       0.0000000000       0.3309229558
F            0.6225113591       6.1045100000       4.0416000335
F            7.2406301967       6.1045100000       1.3833664544
F            5.8382136663       0.3498090000       2.4629347855
F            2.0249278895       0.3498090000       2.9620317024
K_POINTS automatic
8 8 8 0 0 0
CELL_PARAMETERS angstrom
      5.7281500000       3.4295000000       0.0000000000
     -5.7281500000       3.4295000000       0.0000000000
     -3.5931584442       0.0000000000       5.4249664879
