&CONTROL
  calculation = 'scf'
  etot_conv_thr =   9.0000000000d-05
  forc_conv_thr =   1.0000000000d-04
  max_seconds =   3.4200000000d+04
  outdir = './out/'
  prefix = 'aiida'
  pseudo_dir = './pseudo/'
  tprnfor = .true.
  tstress = .true.
  verbosity = 'high'
/
&SYSTEM
  degauss =   1.0000000000d-02
  ecutrho =   4.8000000000d+02
  ecutwfc =   6.0000000000d+01
  ibrav = 0
  nat = 9
  nosym = .false.
  nspin = 2
  ntyp = 3
  occupations = 'smearing'
  smearing = 'cold'
  starting_magnetization(1) =   1.0000000000d-01
  starting_magnetization(2) =   1.0000000000d-01
  starting_magnetization(3) =   1.0000000000d-01
/
&ELECTRONS
  conv_thr =   1.8000000000d-09
  electron_maxstep = 80
  mixing_beta =   4.0000000000d-01
/
ATOMIC_SPECIES
Br     79.904 br_pbesol_v1.4.uspp.F.UPF
Mg     24.305 Mg.pbesol-n-kjpaw_psl.0.3.0.UPF
N      14.0067 N.pbesol-theos.UPF
ATOMIC_POSITIONS angstrom
Mg           0.0000000000       0.0000000000       0.0000000000
Br           2.6017325000       2.6017325000       7.8051975000
Br           2.6017325000       7.8051975000       7.8051975000
N            2.1667228260      -0.0000000000      -0.0000000000
N            0.0000000000       0.0000000000       8.2402071740
N            5.2034650000       7.3701878260      -0.0000000000
N            5.2034650000      -0.0000000000       7.3701878260
N            5.2034650000       3.0367421740       0.0000000000
N            8.2402071740      -0.0000000000      -0.0000000000
K_POINTS automatic
7 7 7 0 0 0
CELL_PARAMETERS angstrom
      0.0000000000       5.2034650000       5.2034650000
      5.2034650000       0.0000000000       5.2034650000
      5.2034650000       5.2034650000       0.0000000000
