&CONTROL
  calculation = 'scf'
  etot_conv_thr =   4.0000000000d-05
  forc_conv_thr =   1.0000000000d-04
  max_seconds =   6.8400000000d+03
  outdir = './out/'
  prefix = 'aiida'
  pseudo_dir = './pseudo/'
  restart_mode = 'from_scratch'
  tprnfor = .true.
  tstress = .true.
  verbosity = 'high'
/
&SYSTEM
  degauss =   2.0000000000d-02
  ecutrho =   4.0000000000d+02
  ecutwfc =   5.0000000000d+01
  ibrav = 0
  nat = 4
  nbnd = 35
  nosym = .false.
  nspin = 2
  ntyp = 4
  occupations = 'smearing'
  smearing = 'cold'
  starting_magnetization(1) =   3.5714285714d-01
  starting_magnetization(2) =   1.0000000000d-01
  starting_magnetization(3) =   3.8461538462d-01
  starting_magnetization(4) =   4.1666666667d-01
/
&ELECTRONS
  conv_thr =   8.0000000000d-10
  diagonalization = 'cg'
  electron_maxstep = 100
  mixing_beta =   2.0000000000d-01
  mixing_ndim = 12
  startingpot = 'file'
/
ATOMIC_SPECIES
Cr     51.9961 cr_pbesol_v1.5.uspp.F.UPF
In     114.818 In.pbesol-dn-rrkjus_psl.0.2.2.UPF
V      50.9415 v_pbesol_v1.4.uspp.F.UPF
Zr     91.224 zr_pbesol_v1.uspp.F.UPF
ATOMIC_POSITIONS angstrom
Zr           1.6050000000       1.6050000000       1.6050000000
V            3.2100000000       0.0000000000       0.0000000000
Cr           0.0000000000       0.0000000000       0.0000000000
In           1.6050000000       1.6050000000       4.8150000000
K_POINTS automatic
12 12 12 0 0 0
CELL_PARAMETERS angstrom
      0.0000000000       3.2100000000       3.2100000000
      3.2100000000       0.0000000000       3.2100000000
      3.2100000000       3.2100000000       0.0000000000
