&CONTROL
  calculation = 'scf'
  etot_conv_thr =   9.0000000000d-05
  forc_conv_thr =   1.0000000000d-04
  max_seconds =   3.4200000000d+04
  outdir = './out/'
  prefix = 'aiida'
  pseudo_dir = './pseudo/'
  restart_mode = 'restart'
  tprnfor = .true.
  tstress = .true.
  verbosity = 'high'
/
&SYSTEM
  degauss =   1.0000000000d-02
  ecutrho =   4.8000000000d+02
  ecutwfc =   6.0000000000d+01
  ibrav = 0
  nat = 9
  nosym = .false.
  nspin = 2
  ntyp = 3
  occupations = 'smearing'
  smearing = 'cold'
  starting_magnetization(1) =   1.0000000000d-01
  starting_magnetization(2) =   1.0000000000d-01
  starting_magnetization(3) =   3.1250000000d-01
/
&ELECTRONS
  conv_thr =   1.8000000000d-09
  electron_maxstep = 80
  mixing_beta =   1.0000000000d-01
/
ATOMIC_SPECIES
F      18.9984032 f_pbesol_v1.4.uspp.F.UPF
N      14.0067 N.pbesol-theos.UPF
Pt     195.084 pt_pbesol_v1.4.uspp.F.UPF
ATOMIC_POSITIONS angstrom
Pt           0.0000000000       0.0000000000       0.0000000000
N            0.0000000000       0.0000000000       3.6449200000
N            0.0000000000       0.0000000000      11.0050800000
F           -1.6183008000       4.3845716112       1.1177950000
F            2.9880000000       3.5937754094      13.5322050000
F            1.6183008000       4.3845716112       1.1177950000
F            0.0000000000       1.5815924037       1.1177950000
F            4.6063008000       0.7907962018      13.5322050000
F            1.3696992000       0.7907962018      13.5322050000
K_POINTS automatic
9 9 3 0 0 0
CELL_PARAMETERS angstrom
      5.9760000000       0.0000000000       0.0000000000
     -2.9880000000       5.1753678130       0.0000000000
      0.0000000000       0.0000000000      14.6500000000
