&CONTROL
  calculation = 'scf'
  etot_conv_thr =   1.4000000000d-04
  forc_conv_thr =   1.0000000000d-04
  max_seconds =   3.4200000000d+04
  outdir = './out/'
  prefix = 'aiida'
  pseudo_dir = './pseudo/'
  tprnfor = .true.
  tstress = .true.
  verbosity = 'high'
/
&SYSTEM
  degauss =   1.0000000000d-02
  ecutrho =   1.0800000000d+03
  ecutwfc =   9.0000000000d+01
  ibrav = 0
  nat = 14
  nosym = .false.
  nspin = 2
  ntyp = 3
  occupations = 'smearing'
  smearing = 'cold'
  starting_magnetization(1) =   3.1250000000d-01
  starting_magnetization(2) =   2.7777777778d-01
  starting_magnetization(3) =   1.0000000000d-01
/
&ELECTRONS
  conv_thr =   2.8000000000d-09
  electron_maxstep = 80
  mixing_beta =   4.0000000000d-01
/
ATOMIC_SPECIES
Fe     55.845 Fe.pbesol-spn-kjpaw_psl.0.2.1.UPF
Ni     58.6934 ni_pbesol_v1.4.uspp.F.UPF
O      15.9994 O.pbesol-n-kjpaw_psl.0.1.UPF
ATOMIC_POSITIONS angstrom
Fe           7.3123750000       7.3123750000       1.0446250000
Fe           3.1338750000       1.0446250000       3.1338750000
Fe           5.2231250000       7.3123750000       3.1338750000
Fe           1.0446250000       1.0446250000       1.0446250000
Ni           2.0892500000       6.2677500000       2.0892500000
Ni           0.0000000000       0.0000000000       4.1785000000
O            1.0446250000       1.0446250000       3.1338750000
O            1.0446250000       3.1338750000       1.0446250000
O            3.1338750000       1.0446250000       1.0446250000
O            3.1338750000       3.1338750000       3.1338750000
O            5.2231250000       1.0446250000       3.1338750000
O            1.0446250000       7.3123750000       1.0446250000
O            7.3123750000       1.0446250000       1.0446250000
O            3.1338750000       7.3123750000       3.1338750000
K_POINTS automatic
9 9 9 0 0 0
CELL_PARAMETERS angstrom
      0.0000000000       4.1785000000       4.1785000000
      4.1785000000       0.0000000000       4.1785000000
      4.1785000000       4.1785000000       0.0000000000
