&CONTROL
  calculation = 'scf'
  etot_conv_thr =   7.0000000000d-05
  forc_conv_thr =   1.0000000000d-04
  max_seconds =   6.8400000000d+03
  outdir = './out/'
  prefix = 'aiida'
  pseudo_dir = './pseudo/'
  tprnfor = .true.
  tstress = .true.
  verbosity = 'high'
/
&SYSTEM
  degauss =   2.0000000000d-02
  ecutrho =   4.0000000000d+02
  ecutwfc =   5.0000000000d+01
  ibrav = 0
  nat = 7
  nosym = .false.
  nspin = 2
  ntyp = 4
  occupations = 'smearing'
  smearing = 'cold'
  starting_magnetization(1) =   1.0000000000d-01
  starting_magnetization(2) =   1.0000000000d-01
  starting_magnetization(3) =   1.0000000000d-01
  starting_magnetization(4) =   1.0000000000d-01
/
&ELECTRONS
  conv_thr =   1.4000000000d-09
  electron_maxstep = 500
  mixing_beta =   4.0000000000d-01
/
ATOMIC_SPECIES
Ba     137.327 Ba.pbesol-spn-kjpaw_psl.1.0.0.UPF
Be     9.012182 be_pbesol_v1.4.uspp.F.UPF
O      15.9994 O.pbesol-n-kjpaw_psl.0.1.UPF
Si     28.0855 Si.pbesol-n-rrkjus_psl.1.0.0.UPF
ATOMIC_POSITIONS angstrom
Ba           0.0000000000       0.0000000000      -0.0000000000
Be           0.1097041565      -0.0000000000       3.0806123954
Si           2.9831639357      -0.0000000000       2.0035989523
O            3.8926688097       1.2708683700       2.3832504047
O            3.8926688097       3.8764316300       2.3832504047
O            2.6696879808       0.0000000000       0.4694025726
O            1.6725635074       0.0000000000       2.9078520231
K_POINTS automatic
10 10 10 0 0 0
CELL_PARAMETERS angstrom
      4.4173000000       2.5736500000       0.0000000000
     -4.4173000000       2.5736500000       0.0000000000
     -2.8878597778       0.0000000000       4.2136676179
