&CONTROL
  calculation = 'scf'
  etot_conv_thr =   4.0000000000d-05
  forc_conv_thr =   1.0000000000d-04
  max_seconds =   3.4200000000d+04
  outdir = './out/'
  prefix = 'aiida'
  pseudo_dir = './pseudo/'
  restart_mode = 'restart'
  tprnfor = .true.
  tstress = .true.
  verbosity = 'high'
/
&SYSTEM
  degauss =   1.0000000000d-02
  ecutrho =   3.6000000000d+02
  ecutwfc =   4.5000000000d+01
  ibrav = 0
  nat = 4
  nosym = .false.
  nspin = 2
  ntyp = 2
  occupations = 'smearing'
  smearing = 'cold'
  starting_magnetization(1) =   1.0000000000d-01
  starting_magnetization(2) =   3.8461538462d-01
/
&ELECTRONS
  conv_thr =   8.0000000000d-10
  electron_maxstep = 80
  mixing_beta =   2.0000000000d-01
/
ATOMIC_SPECIES
C      12.0107 C.pbesol-n-kjpaw_psl.1.0.0.UPF
V      50.9415 v_pbesol_v1.4.uspp.F.UPF
ATOMIC_POSITIONS angstrom
V            0.0000000000       0.0000000000       0.0000000000
C            0.0000000000       3.5242500000       3.5242500000
C            3.5242500000       0.0000000000       3.5242500000
C            3.5242500000       3.5242500000       0.0000000000
K_POINTS automatic
6 6 6 0 0 0
CELL_PARAMETERS angstrom
      7.0485000000       0.0000000000       0.0000000000
      0.0000000000       7.0485000000       0.0000000000
      0.0000000000       0.0000000000       7.0485000000
