&CONTROL
  calculation = 'scf'
  etot_conv_thr =   1.0000000000d-04
  forc_conv_thr =   1.0000000000d-04
  max_seconds =   6.8400000000d+03
  outdir = './out/'
  prefix = 'aiida'
  pseudo_dir = './pseudo/'
  tprnfor = .true.
  tstress = .true.
  verbosity = 'high'
/
&SYSTEM
  degauss =   2.0000000000d-02
  ecutrho =   4.8000000000d+02
  ecutwfc =   6.0000000000d+01
  ibrav = 0
  nat = 10
  nosym = .false.
  nspin = 2
  ntyp = 3
  occupations = 'smearing'
  smearing = 'cold'
  starting_magnetization(1) =   1.0000000000d-01
  starting_magnetization(2) =   2.9411764706d-01
  starting_magnetization(3) =   1.0000000000d-01
/
&ELECTRONS
  conv_thr =   2.0000000000d-09
  electron_maxstep = 500
  mixing_beta =   4.0000000000d-01
/
ATOMIC_SPECIES
Cl     35.453 cl_pbesol_v1.4.uspp.F.UPF
Co     58.933195 co_pbesol_v1.2.uspp.F.UPF
N      14.0067 N.pbesol-theos.UPF
ATOMIC_POSITIONS angstrom
Co           0.0000000000       0.0000000000       0.0000000000
N            0.0000000000       0.0000000000       9.2340000000
N            5.7000000000       7.8660000000       0.0000000000
N            2.1660000000      -0.0000000000      -0.0000000000
N            5.7000000000       0.0000000000       7.8660000000
N            5.7000000000       3.5340000000      -0.0000000000
N            9.2340000000      -0.0000000000      -0.0000000000
Cl           5.7000000000       0.0000000000       0.0000000000
Cl           2.8500000000       2.8500000000       8.5500000000
Cl           2.8500000000       8.5500000000       8.5500000000
K_POINTS automatic
7 7 7 0 0 0
CELL_PARAMETERS angstrom
      0.0000000000       5.7000000000       5.7000000000
      5.7000000000       0.0000000000       5.7000000000
      5.7000000000       5.7000000000       0.0000000000
