&CONTROL
  calculation = 'scf'
  etot_conv_thr =   1.2000000000d-04
  forc_conv_thr =   1.0000000000d-04
  max_seconds =   3.4200000000d+04
  outdir = './out/'
  prefix = 'aiida'
  pseudo_dir = './pseudo/'
  tprnfor = .true.
  tstress = .true.
  verbosity = 'high'
/
&SYSTEM
  degauss =   1.0000000000d-02
  ecutrho =   1.0800000000d+03
  ecutwfc =   9.0000000000d+01
  ibrav = 0
  nat = 12
  nosym = .false.
  nspin = 2
  ntyp = 3
  occupations = 'smearing'
  smearing = 'cold'
  starting_magnetization(1) =   3.1250000000d-01
  starting_magnetization(2) =   1.0000000000d-01
  starting_magnetization(3) =   1.0000000000d-01
/
&ELECTRONS
  conv_thr =   2.4000000000d-09
  electron_maxstep = 80
  mixing_beta =   4.0000000000d-01
/
ATOMIC_SPECIES
Fe     55.845 Fe.pbesol-spn-kjpaw_psl.0.2.1.UPF
K      39.0983 K.pbesol-spn-kjpaw_psl.1.0.0.UPF
S      32.065 s_pbesol_v1.4.uspp.F.UPF
ATOMIC_POSITIONS angstrom
K            4.5207500000       9.1062028800       1.3544250000
K            4.5207500000       1.9235971200       4.0632750000
Fe           7.6744252000      -0.0000000000       2.7088500000
Fe           7.6744252000      -0.0000000000       0.0000000000
Fe           1.3670748000       0.0000000000       2.7088500000
Fe           1.3670748000       0.0000000000       0.0000000000
S            2.5723067500       1.2662210400       1.3544250000
S            2.5723067500       9.7635789600       4.0632750000
S            6.4691932500       1.2662210400       1.3544250000
S            6.4691932500       9.7635789600       4.0632750000
S            4.5207500000       4.2365461800       1.3544250000
S            4.5207500000       6.7932538200       4.0632750000
K_POINTS automatic
6 6 8 0 0 0
CELL_PARAMETERS angstrom
      4.5207500000      -5.5149000000       0.0000000000
      4.5207500000       5.5149000000       0.0000000000
      0.0000000000       0.0000000000       5.4177000000
