&CONTROL
  calculation = 'scf'
  etot_conv_thr =   4.0000000000d-05
  forc_conv_thr =   1.0000000000d-04
  max_seconds =   3.4200000000d+04
  outdir = './out/'
  prefix = 'aiida'
  pseudo_dir = './pseudo/'
  restart_mode = 'restart'
  tprnfor = .true.
  tstress = .true.
  verbosity = 'high'
/
&SYSTEM
  degauss =   1.0000000000d-02
  ecutrho =   3.6000000000d+02
  ecutwfc =   4.5000000000d+01
  ibrav = 0
  nat = 4
  nosym = .false.
  nspin = 2
  ntyp = 2
  occupations = 'smearing'
  smearing = 'cold'
  starting_magnetization(1) =   1.0000000000d-01
  starting_magnetization(2) =   3.8461538462d-01
/
&ELECTRONS
  conv_thr =   8.0000000000d-10
  electron_maxstep = 80
  mixing_beta =   1.0000000000d-01
/
ATOMIC_SPECIES
F      18.9984032 f_pbesol_v1.4.uspp.F.UPF
Nb     92.90638 Nb.pbesol-spn-kjpaw_psl.0.3.0.UPF
ATOMIC_POSITIONS angstrom
Nb           0.0000000000       0.0000000000       0.0000000000
F            1.9695000000       0.0000000000       0.0000000000
F            0.0000000000       1.9695000000       0.0000000000
F            0.0000000000       0.0000000000       1.9695000000
K_POINTS automatic
11 11 11 0 0 0
CELL_PARAMETERS angstrom
      3.9390000000       0.0000000000       0.0000000000
      0.0000000000       3.9390000000       0.0000000000
      0.0000000000       0.0000000000       3.9390000000
