&CONTROL
  calculation = 'scf'
  etot_conv_thr =   5.0000000000d-05
  forc_conv_thr =   1.0000000000d-04
  max_seconds =   3.4200000000d+04
  outdir = './out/'
  prefix = 'aiida'
  pseudo_dir = './pseudo/'
  restart_mode = 'restart'
  tprnfor = .true.
  tstress = .true.
  verbosity = 'high'
/
&SYSTEM
  degauss =   1.0000000000d-02
  ecutrho =   4.0000000000d+02
  ecutwfc =   5.0000000000d+01
  ibrav = 0
  nat = 5
  nosym = .false.
  nspin = 2
  ntyp = 3
  occupations = 'smearing'
  smearing = 'cold'
  starting_magnetization(1) =   1.0000000000d-01
  starting_magnetization(2) =   3.1250000000d-01
  starting_magnetization(3) =   4.5454545455d-01
/
&ELECTRONS
  conv_thr =   1.0000000000d-09
  electron_maxstep = 80
  mixing_beta =   2.0000000000d-01
/
ATOMIC_SPECIES
O      15.9994 O.pbesol-n-kjpaw_psl.0.1.UPF
Ru     101.07 Ru_ONCV_PBEsol-1.0.upf
Y      88.90585 y_pbesol_v1.4.uspp.F.UPF
ATOMIC_POSITIONS angstrom
Y            0.0000000000       0.0000000000       5.0714500000
Ru           0.0000000000       0.0000000000       0.0000000000
O            0.0000000000       0.0000000000       3.4015229440
O            0.0000000000       0.0000000000       1.2678625000
O            0.0000000000       0.0000000000       3.8035875000
K_POINTS automatic
5 5 5 0 0 0
CELL_PARAMETERS angstrom
     10.1429000000       0.0000000000       0.0000000000
      0.0000000000      10.1429000000       0.0000000000
      0.0000000000       0.0000000000      10.1429000000
