&CONTROL
  calculation = 'scf'
  etot_conv_thr =   1.0000000000d-04
  forc_conv_thr =   1.0000000000d-04
  max_seconds =   3.4200000000d+04
  outdir = './out/'
  prefix = 'aiida'
  pseudo_dir = './pseudo/'
  restart_mode = 'restart'
  tprnfor = .true.
  tstress = .true.
  verbosity = 'high'
/
&SYSTEM
  degauss =   1.0000000000d-02
  ecutrho =   7.8000000000d+02
  ecutwfc =   6.5000000000d+01
  ibrav = 0
  nat = 10
  nosym = .false.
  nspin = 2
  ntyp = 4
  occupations = 'smearing'
  smearing = 'cold'
  starting_magnetization(1) =   1.0000000000d-01
  starting_magnetization(2) =   3.3333333333d-01
  starting_magnetization(3) =   1.0000000000d-01
  starting_magnetization(4) =   1.0000000000d-01
/
&ELECTRONS
  conv_thr =   2.0000000000d-09
  electron_maxstep = 80
  mixing_beta =   1.0000000000d-01
/
ATOMIC_SPECIES
Ba     137.327 Ba.pbesol-spn-kjpaw_psl.1.0.0.UPF
Mn     54.938045 mn_pbesol_v1.5.uspp.F.UPF
O      15.9994 O.pbesol-n-kjpaw_psl.0.1.UPF
Te     127.6 te_pbesol_v1.uspp.F.UPF
ATOMIC_POSITIONS angstrom
Ba           0.0000000000       3.3584465159       5.9350000000
Ba          -0.0000000000       3.3584465159      13.0570000000
Mn           0.0000000000       0.0000000000       0.0000000000
Te           0.0000000000       3.3584465159       2.3740000000
O            0.0000000000       1.7829992553       1.2539468000
O           -1.3643773500       4.1461701462       1.2539468000
O           -1.3643773500       2.5707228856       3.4940532000
O            1.3643773500       2.5707228856       3.4940532000
O            0.0000000000       4.9338937765       3.4940532000
O            1.3643773500       4.1461701462       1.2539468000
K_POINTS automatic
9 9 9 0 0 0
CELL_PARAMETERS angstrom
      2.9085000000       1.6792232579       4.7480000000
     -2.9085000000       1.6792232579       4.7480000000
     -0.0000000000      -3.3584465159       4.7480000000
