&CONTROL
  calculation = 'scf'
  etot_conv_thr =   9.0000000000d-05
  forc_conv_thr =   1.0000000000d-04
  max_seconds =   3.4200000000d+04
  outdir = './out/'
  prefix = 'aiida'
  pseudo_dir = './pseudo/'
  tprnfor = .true.
  tstress = .true.
  verbosity = 'high'
/
&SYSTEM
  degauss =   1.0000000000d-02
  ecutrho =   4.8000000000d+02
  ecutwfc =   6.0000000000d+01
  ibrav = 0
  nat = 9
  nosym = .false.
  nspin = 2
  ntyp = 3
  occupations = 'smearing'
  smearing = 'cold'
  starting_magnetization(1) =   2.9411764706d-01
  starting_magnetization(2) =   1.0000000000d-01
  starting_magnetization(3) =   1.0000000000d-01
/
&ELECTRONS
  conv_thr =   1.8000000000d-09
  electron_maxstep = 80
  mixing_beta =   4.0000000000d-01
/
ATOMIC_SPECIES
Co     58.933195 co_pbesol_v1.2.uspp.F.UPF
F      18.9984032 f_pbesol_v1.4.uspp.F.UPF
K      39.0983 K.pbesol-spn-kjpaw_psl.1.0.0.UPF
ATOMIC_POSITIONS angstrom
K            2.0299750000       2.0299750000       6.0899250000
K            2.0299750000       6.0899250000       6.0899250000
Co           0.0000000000       0.0000000000       0.0000000000
F            6.3083503100       0.0000000000       0.0000000000
F            4.0599500000       2.2484003100      -0.0000000000
F           -0.0000000000      -0.0000000000       6.3083503100
F            4.0599500000       0.0000000000       5.8714996900
F            4.0599500000       5.8714996900       0.0000000000
F            1.8115496900      -0.0000000000      -0.0000000000
K_POINTS automatic
9 9 9 0 0 0
CELL_PARAMETERS angstrom
      0.0000000000       4.0599500000       4.0599500000
      4.0599500000       0.0000000000       4.0599500000
      4.0599500000       4.0599500000       0.0000000000
