&CONTROL
  calculation = 'scf'
  etot_conv_thr =   1.2000000000d-04
  forc_conv_thr =   1.0000000000d-04
  max_seconds =   3.4200000000d+04
  outdir = './out/'
  prefix = 'aiida'
  pseudo_dir = './pseudo/'
  tprnfor = .true.
  tstress = .true.
  verbosity = 'high'
/
&SYSTEM
  degauss =   1.0000000000d-02
  ecutrho =   2.4000000000d+02
  ecutwfc =   3.0000000000d+01
  ibrav = 0
  nat = 12
  nosym = .false.
  nspin = 2
  ntyp = 1
  occupations = 'smearing'
  smearing = 'cold'
  starting_magnetization(1) =   3.5714285714d-01
/
&ELECTRONS
  conv_thr =   2.4000000000d-09
  electron_maxstep = 80
  mixing_beta =   4.0000000000d-01
/
ATOMIC_SPECIES
W      183.84 w_pbesol_v1.2.uspp.F.UPF
ATOMIC_POSITIONS angstrom
W           12.6057947343       0.7645980671       2.6244853970
W            9.2018249303       9.7779847058       8.7863206770
W            3.2059151371       1.4125669897       0.5705403037
W           18.6017045274       9.1300157833      10.8402657704
W           11.9711391776       2.8724191121       0.1141080607
W            9.8364804870       7.6701636609      11.2966980133
W            7.1106944850       0.8391959826       8.2157803733
W           14.6969251796       9.7033867904       3.1950257007
W           13.6613346356       1.5246377402      10.1556174059
W            8.1462850290       9.0179450327       1.2551886681
W           15.9251842028       2.2937942014       7.8734561911
W            5.8824354617       8.2487885716       3.5373498830
K_POINTS automatic
4 4 5 0 0 0
CELL_PARAMETERS angstrom
      4.9265677408      -0.5253903646      11.4108060741
      5.1110519238      11.0679731376       0.0000000000
    -11.7700000000       0.0000000000       0.0000000000
