&CONTROL
  calculation = 'scf'
  etot_conv_thr =   9.0000000000d-05
  forc_conv_thr =   1.0000000000d-04
  max_seconds =   3.4200000000d+04
  outdir = './out/'
  prefix = 'aiida'
  pseudo_dir = './pseudo/'
  restart_mode = 'restart'
  tprnfor = .true.
  tstress = .true.
  verbosity = 'high'
/
&SYSTEM
  degauss =   1.0000000000d-02
  ecutrho =   4.0000000000d+02
  ecutwfc =   5.0000000000d+01
  ibrav = 0
  nat = 9
  nosym = .false.
  nspin = 2
  ntyp = 3
  occupations = 'smearing'
  smearing = 'cold'
  starting_magnetization(1) =   1.0000000000d-01
  starting_magnetization(2) =   2.7777777778d-01
  starting_magnetization(3) =   1.0000000000d-01
/
&ELECTRONS
  conv_thr =   1.8000000000d-09
  electron_maxstep = 80
  mixing_beta =   1.0000000000d-01
/
ATOMIC_SPECIES
Cl     35.453 cl_pbesol_v1.4.uspp.F.UPF
Ni     58.6934 ni_pbesol_v1.4.uspp.F.UPF
O      15.9994 O.pbesol-n-kjpaw_psl.0.1.UPF
ATOMIC_POSITIONS angstrom
Ni           0.0000000000       0.0000000000       0.0000000000
Cl          -0.5712353984       3.5250000000       4.6325807738
Cl           7.3031496860       3.5250000000       0.9287406833
O            7.2907578015       5.5836000000       4.1654297714
O            7.2907578015       1.4664000000       4.1654297714
O           -0.5588435138       5.5836000000       1.3958916857
O           -0.5588435138       1.4664000000       1.3958916857
O            1.1263304577       3.5250000000       1.6572737942
O            5.6055838299       3.5250000000       3.9040476629
K_POINTS automatic
8 8 8 0 0 0
CELL_PARAMETERS angstrom
      5.1150000000       3.5250000000       0.0000000000
     -5.1150000000       3.5250000000       0.0000000000
     -3.4980857123       0.0000000000       5.5613214571
