&CONTROL
  calculation = 'scf'
  etot_conv_thr =   1.2000000000d-04
  forc_conv_thr =   1.0000000000d-04
  max_seconds =   3.4200000000d+04
  outdir = './out/'
  prefix = 'aiida'
  pseudo_dir = './pseudo/'
  tprnfor = .true.
  tstress = .true.
  verbosity = 'high'
/
&SYSTEM
  degauss =   1.0000000000d-02
  ecutrho =   4.0000000000d+02
  ecutwfc =   5.0000000000d+01
  ibrav = 0
  nat = 12
  nosym = .false.
  nspin = 2
  ntyp = 2
  occupations = 'smearing'
  smearing = 'cold'
  starting_magnetization(1) =   1.0000000000d-01
  starting_magnetization(2) =   1.0000000000d-01
/
&ELECTRONS
  conv_thr =   2.4000000000d-09
  electron_maxstep = 80
  mixing_beta =   4.0000000000d-01
/
ATOMIC_SPECIES
Cl     35.453 cl_pbesol_v1.4.uspp.F.UPF
O      15.9994 O.pbesol-n-kjpaw_psl.0.1.UPF
ATOMIC_POSITIONS angstrom
Cl           3.4857173716       2.0770765000       2.3162971640
Cl           2.8708134085       3.9504235000       5.6083624908
Cl          -0.1096213347       8.1045765000       0.9757681629
Cl          -0.7245252978       9.9779235000       4.2678334897
O            2.5648950142       5.3379540000       1.3339448704
O            1.9499910510       0.6895460000       4.6260101973
O            0.8112010227      11.3654540000       1.9581204564
O            0.1962970596       6.7170460000       5.2501857832
O            1.1978830503       4.4856655000       3.1314125389
O            0.5829790872       1.5418345000       6.4234778657
O            2.1782129866      10.5131655000       0.1606527879
O            1.5633090235       7.5693345000       3.4527181148
K_POINTS automatic
11 4 7 0 0 0
CELL_PARAMETERS angstrom
      3.9910000000       0.0000000000       0.0000000000
      0.0000000000      12.0550000000       0.0000000000
     -1.2298079262       0.0000000000       6.5841306537
