&CONTROL
  calculation = 'scf'
  etot_conv_thr =   1.3000000000d-04
  forc_conv_thr =   1.0000000000d-04
  max_seconds =   3.4200000000d+04
  outdir = './out/'
  prefix = 'aiida'
  pseudo_dir = './pseudo/'
  tprnfor = .true.
  tstress = .true.
  verbosity = 'high'
/
&SYSTEM
  degauss =   1.0000000000d-02
  ecutrho =   1.0800000000d+03
  ecutwfc =   9.0000000000d+01
  ibrav = 0
  nat = 13
  nosym = .false.
  nspin = 2
  ntyp = 3
  occupations = 'smearing'
  smearing = 'cold'
  starting_magnetization(1) =   3.1250000000d-01
  starting_magnetization(2) =   3.3333333333d-01
  starting_magnetization(3) =   4.5454545455d-01
/
&ELECTRONS
  conv_thr =   2.6000000000d-09
  electron_maxstep = 80
  mixing_beta =   4.0000000000d-01
/
ATOMIC_SPECIES
Fe     55.845 Fe.pbesol-spn-kjpaw_psl.0.2.1.UPF
Mn     54.938045 mn_pbesol_v1.5.uspp.F.UPF
Y      88.90585 y_pbesol_v1.4.uspp.F.UPF
ATOMIC_POSITIONS angstrom
Y            0.0000000000       0.0000000000       0.0000000000
Mn           4.2765000000       7.3555800000       2.3845000000
Mn           4.2765000000       1.1974200000       2.3845000000
Mn           5.4739200000       0.0000000000       0.0000000000
Mn           3.0790800000      -0.0000000000       0.0000000000
Mn           4.2765000000       2.3948400000       0.0000000000
Mn           4.2765000000       6.1581600000      -0.0000000000
Mn           1.8816600000       0.0000000000       2.3845000000
Mn           6.6713400000       0.0000000000       2.3845000000
Fe           2.1382500000       2.1382500000       3.5767500000
Fe           2.1382500000       2.1382500000       1.1922500000
Fe           2.1382500000       6.4147500000       1.1922500000
Fe           2.1382500000       6.4147500000       3.5767500000
K_POINTS automatic
11 11 11 0 0 0
CELL_PARAMETERS angstrom
     -4.2765000000       4.2765000000       2.3845000000
      4.2765000000      -4.2765000000       2.3845000000
      4.2765000000       4.2765000000      -2.3845000000
