&CONTROL
  calculation = 'scf'
  etot_conv_thr =   1.2000000000d-04
  forc_conv_thr =   1.0000000000d-04
  max_seconds =   3.4200000000d+04
  outdir = './out/'
  prefix = 'aiida'
  pseudo_dir = './pseudo/'
  tprnfor = .true.
  tstress = .true.
  verbosity = 'high'
/
&SYSTEM
  degauss =   1.0000000000d-02
  ecutrho =   4.0000000000d+02
  ecutwfc =   5.0000000000d+01
  ibrav = 0
  nat = 12
  nosym = .false.
  nspin = 2
  ntyp = 3
  occupations = 'smearing'
  smearing = 'cold'
  starting_magnetization(1) =   1.0000000000d-01
  starting_magnetization(2) =   2.9411764706d-01
  starting_magnetization(3) =   1.0000000000d-01
/
&ELECTRONS
  conv_thr =   2.4000000000d-09
  electron_maxstep = 80
  mixing_beta =   4.0000000000d-01
/
ATOMIC_SPECIES
Cl     35.453 cl_pbesol_v1.4.uspp.F.UPF
Co     58.933195 co_pbesol_v1.2.uspp.F.UPF
O      15.9994 O.pbesol-n-kjpaw_psl.0.1.UPF
ATOMIC_POSITIONS angstrom
Co          -1.7104750000       4.9377160085      12.0868333333
Co           3.4209500000       3.9501728068       2.4173666667
Co           1.7104750000       0.9875432017       2.4173666667
Co           0.0000000000       0.0000000000       0.0000000000
Cl          -0.0000000000       3.9501728068       5.5676789067
Cl          -0.0000000000       3.9501728068      13.7712544267
O           -0.0000000000       1.5804641400       1.4059404533
O           -2.0522279050       5.1350271402       1.4059404533
O            4.7896720950       2.7653184734       3.4287928800
O            2.0522279050       2.7653184734       3.4287928800
O            3.4209500000       0.3946222634       3.4287928800
O            2.0522279050       5.1350271402       1.4059404533
K_POINTS automatic
8 8 8 0 0 0
CELL_PARAMETERS angstrom
      3.4209500000       1.9750864034       4.8347333333
     -3.4209500000       1.9750864034       4.8347333333
      0.0000000000      -3.9501728068       4.8347333333
