&CONTROL
  calculation = 'scf'
  etot_conv_thr =   1.2000000000d-04
  forc_conv_thr =   1.0000000000d-04
  max_seconds =   3.4200000000d+04
  outdir = './out/'
  prefix = 'aiida'
  pseudo_dir = './pseudo/'
  restart_mode = 'restart'
  tprnfor = .true.
  tstress = .true.
  verbosity = 'high'
/
&SYSTEM
  degauss =   1.0000000000d-02
  ecutrho =   3.2000000000d+02
  ecutwfc =   4.0000000000d+01
  ibrav = 0
  nat = 12
  nosym = .false.
  nspin = 2
  ntyp = 2
  occupations = 'smearing'
  smearing = 'cold'
  starting_magnetization(1) =   1.0000000000d-01
  starting_magnetization(2) =   1.0000000000d-01
/
&ELECTRONS
  conv_thr =   2.4000000000d-09
  electron_maxstep = 80
  mixing_beta =   1.0000000000d-01
/
ATOMIC_SPECIES
Ba     137.327 Ba.pbesol-spn-kjpaw_psl.1.0.0.UPF
Pb     207.2 Pb.pbesol-dn-kjpaw_psl.0.2.2.UPF
ATOMIC_POSITIONS angstrom
Ba           8.3116800000       4.2825000000       7.6179800000
Ba           3.9916800000       4.2825000000       8.2970200000
Ba           0.3283200000       1.4275000000       2.9920200000
Ba           4.6483200000       1.4275000000       2.3129800000
Ba           7.1366400000       4.2825000000       0.6578200000
Ba           2.8166400000       4.2825000000       4.6471800000
Ba           1.5033600000       1.4275000000       9.9521800000
Ba           5.8233600000       1.4275000000       5.9628200000
Pb           6.8947200000       4.2825000000       4.1272900000
Pb           2.5747200000       4.2825000000       1.1777100000
Pb           1.7452800000       1.4275000000       6.4827100000
Pb           6.0652800000       1.4275000000       9.4322900000
K_POINTS automatic
5 8 4 0 0 0
CELL_PARAMETERS angstrom
      8.6400000000       0.0000000000       0.0000000000
      0.0000000000       5.7100000000       0.0000000000
      0.0000000000       0.0000000000      10.6100000000
